units           real
atom_style      full
boundary        p p p

pair_style      lj/cut 5.000
bond_style      harmonic
angle_style     hybrid cosine/periodic fourier
dihedral_style  harmonic

pair_modify     tail yes mix arithmetic
special_bonds   lj/coul 0.0 0.0 1.0
dielectric      1.0
box tilt        large

The 'box' command has been removed and will be ignored

read_data       ./dat/data.333-EXP-11-vasp
Reading data file ...
  triclinic box = (0 0 0) to (15.62386 12.410805 16.075452) with tilt (-8.379751 1.194995 0.431155)
WARNING: Triclinic box skew is large. LAMMPS will run inefficiently. (src/domain.cpp:221)
  1 by 1 by 1 MPI processor grid
  reading atoms ...
  274 atoms
  scanning bonds ...
  4 = max bonds/atom
  scanning angles ...
  6 = max angles/atom
  scanning dihedrals ...
  24 = max dihedrals/atom
  triclinic box = (0 0 0) to (15.62386 12.410805 16.075452) with tilt (-8.379751 1.194995 0.431155)
WARNING: Triclinic box skew is large. LAMMPS will run inefficiently. (src/domain.cpp:221)
  1 by 1 by 1 MPI processor grid
  reading bonds ...
  294 bonds
  reading angles ...
  557 angles
  reading dihedrals ...
  696 dihedrals
Finding 1-2 1-3 1-4 neighbors ...
  special bond factors lj:    0        0        1       
  special bond factors coul:  0        0        1       
     4 = max # of 1-2 neighbors
     8 = max # of 1-3 neighbors
    12 = max # of special neighbors
  special bonds CPU = 0.000 seconds
  read_data CPU = 0.006 seconds

#### Atom Groupings ####
group           fram     id   1:274
274 atoms in group fram
#### END Atom Groupings ####

compute am all property/atom mass
dump        atom_pos all extxyz 100 ./output/333-EXP-11-vasp.lammpstrj
dump_modify atom_pos element Si C O H mass yes
thermo          1000
thermo_style    custom step temp pe ke etotal press vol density

variable up equal 2e-2
variable cfac equal 1.0e-4
variable cunits string GPa

# Define minimization parameters
variable etol equal 0.0
variable ftol equal 1.0e-10
variable maxiter equal 100000
variable maxeval equal 100000
variable dmax equal 1.0e-2

variable temp equal 300.0
variable thermal_damp index 100.0
variable pressure_damp index 500.0

fix relax all box/relax aniso 0.0 vmax 0.001
unfix relax
minimize ${etol} ${ftol} ${maxiter} ${maxeval}
minimize 0 ${ftol} ${maxiter} ${maxeval}
minimize 0 1e-10 ${maxiter} ${maxeval}
minimize 0 1e-10 100000 ${maxeval}
minimize 0 1e-10 100000 100000
Generated 6 of 6 mixed pair_coeff terms from arithmetic mixing rule
Neighbor list info ...
  update: every = 1 steps, delay = 0 steps, check = yes
  max neighbors/atom: 2000, page size: 100000
  master list distance cutoff = 7
  ghost atom cutoff = 7
  binsize = 3.5, bins = 8 4 5
  1 neighbor lists, perpetual/occasional/extra = 1 0 0
  (1) pair lj/cut, perpetual
      attributes: half, newton on
      pair build: half/bin/newton/tri
      stencil: half/bin/3d/tri
      bin: standard
WARNING: Inconsistent image flags
For more information see https://docs.lammps.org/err0027 (src/domain.cpp:1052)
Per MPI rank memory allocation (min/avg/max) = 17.49 | 17.49 | 17.49 Mbytes
   Step          Temp          PotEng         KinEng         TotEng         Press          Volume        Density    
         0   0              860.87634      0              860.87634      82360.481      3117.1054      1.6256471    
        85   0             -80.260806      0             -80.260806      8077.9922      3117.1054      1.6256471    
Loop time of 0.036271 on 1 procs for 85 steps with 274 atoms

99.7% CPU use with 1 MPI tasks x 1 OpenMP threads

Minimization stats:
  Stopping criterion = linesearch alpha is zero
  Energy initial, next-to-last, final = 
       860.87634050851  -80.2608061348785  -80.2608061348785
  Force two-norm initial, final = 777.55958 11.762295
  Force max component initial, final = 89.698911 2.3354187
  Final line search alpha, max atom move = 6.855688e-11 1.6010902e-10
  Iterations, force evaluations = 85 224

MPI task timing breakdown:
Section |  min time  |  avg time  |  max time  |%varavg| %total
---------------------------------------------------------------
Pair    | 0.023985   | 0.023985   | 0.023985   |   0.0 | 66.13
Bond    | 0.0067587  | 0.0067587  | 0.0067587  |   0.0 | 18.63
Neigh   | 0.0034431  | 0.0034431  | 0.0034431  |   0.0 |  9.49
Comm    | 0.0010527  | 0.0010527  | 0.0010527  |   0.0 |  2.90
Output  | 0          | 0          | 0          |   0.0 |  0.00
Modify  | 0          | 0          | 0          |   0.0 |  0.00
Other   |            | 0.001031   |            |       |  2.84

Nlocal:            274 ave         274 max         274 min
Histogram: 1 0 0 0 0 0 0 0 0 0
Nghost:           2024 ave        2024 max        2024 min
Histogram: 1 0 0 0 0 0 0 0 0 0
Neighs:          16301 ave       16301 max       16301 min
Histogram: 1 0 0 0 0 0 0 0 0 0

Total # of neighbors = 16301
Ave neighs/atom = 59.492701
Ave special neighs/atom = 6.2116788
Neighbor list builds = 2
Dangerous builds = 0

# Generating the full routine as described in the paper for UFF
fix nvt_relax   all nvt temp 300 300 ${thermal_damp}
fix nvt_relax   all nvt temp 300 300 100.0
run 100000      # 100 picoseconds
Generated 6 of 6 mixed pair_coeff terms from arithmetic mixing rule
WARNING: Inconsistent image flags
For more information see https://docs.lammps.org/err0027 (src/domain.cpp:1052)
Per MPI rank memory allocation (min/avg/max) = 17.42 | 17.42 | 17.42 Mbytes
   Step          Temp          PotEng         KinEng         TotEng         Press          Volume        Density    
        85   0             -80.260806      0             -80.260806      8077.9922      3117.1054      1.6256471    
      1000   112.36959      0.78225766     91.442008      92.224265      14890.77       3117.1054      1.6256471    
      2000   323.95901      164.93008      263.62526      428.55534      18056.917      3117.1054      1.6256471    
      3000   304.78249      148.81215      248.02015      396.8323       16872.673      3117.1054      1.6256471    
      4000   299.65473      148.0609       243.84737      391.90827      18904.665      3117.1054      1.6256471    
      5000   301.14035      159.18885      245.05632      404.24516      20158.69       3117.1054      1.6256471    
      6000   308.3609       135.92218      250.93212      386.8543       18634.675      3117.1054      1.6256471    
      7000   319.83438      147.53241      260.26879      407.8012       16690.537      3117.1054      1.6256471    
      8000   292.91036      152.18494      238.35907      390.54401      20968.792      3117.1054      1.6256471    
      9000   298.82013      123.84643      243.16821      367.01464      12472.958      3117.1054      1.6256471    
     10000   289.68951      173.30275      235.73807      409.04082      12401.193      3117.1054      1.6256471    
     11000   287.38131      137.6133       233.85974      371.47304      12274.211      3117.1054      1.6256471    
     12000   290.60155      145.47369      236.48025      381.95394      13069.13       3117.1054      1.6256471    
     13000   281.79485      176.25693      229.3137       405.57063      11981.666      3117.1054      1.6256471    
     14000   283.50873      137.05372      230.70839      367.76211      21378.24       3117.1054      1.6256471    
     15000   318.62438      153.08996      259.28414      412.3741       14897.945      3117.1054      1.6256471    
     16000   275.95747      135.4464       224.56347      360.00986      10835.947      3117.1054      1.6256471    
     17000   294.50007      164.02424      239.65271      403.67695      10637.589      3117.1054      1.6256471    
     18000   302.70919      134.35994      246.33297      380.69291      18853.985      3117.1054      1.6256471    
     19000   328.63392      161.81122      267.42952      429.24074      17251.762      3117.1054      1.6256471    
     20000   302.98224      127.08159      246.55517      373.63676      17435.79       3117.1054      1.6256471    
     21000   322.70368      145.74279      262.60371      408.34651      19280.372      3117.1054      1.6256471    
     22000   303.8608       138.33429      247.27011      385.6044       18003.455      3117.1054      1.6256471    
     23000   275.67249      148.41291      224.33156      372.74447      13786.634      3117.1054      1.6256471    
     24000   315.67929      163.81888      256.88754      420.70642      15352.389      3117.1054      1.6256471    
     25000   292.74567      136.34541      238.22505      374.57047      20699.901      3117.1054      1.6256471    
     26000   306.52016      139.71028      249.4342       389.14448      20543.612      3117.1054      1.6256471    
     27000   279.08761      155.33271      227.11065      382.44336      17983.457      3117.1054      1.6256471    
     28000   278.742        159.36812      226.82941      386.19753      18889.528      3117.1054      1.6256471    
     29000   311.21087      154.22267      253.25131      407.47398      9469.9452      3117.1054      1.6256471    
     30000   287.89787      143.98109      234.2801       378.26119      14992.039      3117.1054      1.6256471    
     31000   307.75829      138.63265      250.44174      389.07438      15529.813      3117.1054      1.6256471    
     32000   313.05597      154.12867      254.75278      408.88145      20574.132      3117.1054      1.6256471    
     33000   302.33674      130.44949      246.02989      376.47938      18404.07       3117.1054      1.6256471    
     34000   325.15126      142.2806       264.59546      406.87606      17626.148      3117.1054      1.6256471    
     35000   314.79804      123.13198      256.17041      379.3024       15288.193      3117.1054      1.6256471    
     36000   304.96196      147.04436      248.1662       395.21056      17028.414      3117.1054      1.6256471    
     37000   305.02659      139.48653      248.21879      387.70532      17999.704      3117.1054      1.6256471    
     38000   297.57838      134.02436      242.15772      376.18208      17865.673      3117.1054      1.6256471    
     39000   323.27256      154.55776      263.06665      417.62441      14251.098      3117.1054      1.6256471    
     40000   317.05445      125.00968      258.00659      383.01627      11811.267      3117.1054      1.6256471    
     41000   313.20496      147.7076       254.87403      402.58163      13879.768      3117.1054      1.6256471    
     42000   283.15655      153.81087      230.4218       384.23267      14234.536      3117.1054      1.6256471    
     43000   309.56813      132.91524      251.91452      384.82976      11775.612      3117.1054      1.6256471    
     44000   292.46951      132.58315      238.00033      370.58347      16073.44       3117.1054      1.6256471    
     45000   288.14154      138.12114      234.47839      372.59953      15502.079      3117.1054      1.6256471    
     46000   292.8517       120.40767      238.31133      358.719        17480.622      3117.1054      1.6256471    
     47000   305.95512      135.52934      248.97438      384.50372      14871.469      3117.1054      1.6256471    
     48000   294.329        140.32173      239.51351      379.83524      16197.535      3117.1054      1.6256471    
     49000   326.75119      139.59518      265.89742      405.4926       18820.368      3117.1054      1.6256471    
     50000   296.29802      138.91196      241.11582      380.02777      17708.106      3117.1054      1.6256471    
     51000   325.6347       146.17524      264.98887      411.1641       11662.648      3117.1054      1.6256471    
     52000   306.39413      129.07634      249.33164      378.40798      23783.98       3117.1054      1.6256471    
     53000   304.48495      142.46743      247.77802      390.24545      22002.002      3117.1054      1.6256471    
     54000   285.10968      172.3613       232.01118      404.37248      9358.2246      3117.1054      1.6256471    
     55000   269.97109      127.89519      219.69198      347.58717      11041.08       3117.1054      1.6256471    
     56000   306.93416      142.49315      249.7711       392.26424      18649.361      3117.1054      1.6256471    
     57000   276.61444      136.20723      225.09808      361.30531      10685.836      3117.1054      1.6256471    
     58000   294.35609      164.07746      239.53555      403.61301      16477.955      3117.1054      1.6256471    
     59000   299.48096      123.4164       243.70597      367.12237      19521.758      3117.1054      1.6256471    
     60000   320.56786      139.01641      260.86567      399.88207      19679.254      3117.1054      1.6256471    
     61000   291.02988      123.69402      236.82881      360.52283      16053.651      3117.1054      1.6256471    
     62000   308.71741      133.76356      251.22223      384.98579      17427.304      3117.1054      1.6256471    
     63000   311.62558      156.02821      253.58879      409.617        15867.742      3117.1054      1.6256471    
     64000   290.72639      136.58955      236.58184      373.17139      13260.905      3117.1054      1.6256471    
     65000   338.82593      124.26127      275.72338      399.98464      16117.673      3117.1054      1.6256471    
     66000   318.7407       134.62356      259.37879      394.00236      15418.944      3117.1054      1.6256471    
     67000   318.32636      139.67217      259.04163      398.71379      12131.464      3117.1054      1.6256471    
     68000   270.20004      157.78139      219.87829      377.65968      13346.127      3117.1054      1.6256471    
     69000   308.14433      140.84875      250.75588      391.60463      14179.162      3117.1054      1.6256471    
     70000   298.24063      150.54014      242.69664      393.23678      16018.678      3117.1054      1.6256471    
     71000   297.76403      157.23653      242.3088       399.54533      10173.141      3117.1054      1.6256471    
     72000   290.56376      141.93743      236.4495       378.38692      18283.017      3117.1054      1.6256471    
     73000   304.27387      148.0182       247.60625      395.62445      8321.0628      3117.1054      1.6256471    
     74000   300.88035      135.13367      244.84474      379.97841      10419.947      3117.1054      1.6256471    
     75000   281.98608      163.48285      229.46932      392.95217      13298.685      3117.1054      1.6256471    
     76000   304.74071      145.79095      247.98615      393.7771       18577.838      3117.1054      1.6256471    
     77000   286.20159      139.91107      232.89974      372.81081      18607.846      3117.1054      1.6256471    
     78000   288.20493      153.45282      234.52997      387.98279      6124.3069      3117.1054      1.6256471    
     79000   292.72214      128.7882       238.20591      366.99411      17746.164      3117.1054      1.6256471    
     80000   318.33308      145.41945      259.04709      404.46655      14218.834      3117.1054      1.6256471    
     81000   304.43283      114.97071      247.73561      362.70631      14402.614      3117.1054      1.6256471    
     82000   279.78835      147.54633      227.68088      375.22721      18604.586      3117.1054      1.6256471    
     83000   324.77714      141.86749      264.29102      406.1585       15403.232      3117.1054      1.6256471    
     84000   289.14923      142.23929      235.29841      377.5377       19192.8        3117.1054      1.6256471    
     85000   290.07729      152.59638      236.05363      388.65001      15557.051      3117.1054      1.6256471    
     86000   315.04952      144.32913      256.37505      400.70418      20527.264      3117.1054      1.6256471    
     87000   304.97295      100.4373       248.17514      348.61244      17150.876      3117.1054      1.6256471    
     88000   328.10875      125.16104      267.00215      392.16319      17051.126      3117.1054      1.6256471    
     89000   325.33584      142.42586      264.74567      407.17153      21494.78       3117.1054      1.6256471    
     90000   291.04476      142.71454      236.84091      379.55546      24479.064      3117.1054      1.6256471    
     91000   326.64937      128.73257      265.81457      394.54713      12520.264      3117.1054      1.6256471    
     92000   323.6427       137.76732      263.36785      401.13517      19958.38       3117.1054      1.6256471    
     93000   309.83842      154.30394      252.13447      406.4384       17287.163      3117.1054      1.6256471    
     94000   288.87126      143.12703      235.0722       378.19923      16444.635      3117.1054      1.6256471    
     95000   279.4552       149.13772      227.40978      376.5475       19175.909      3117.1054      1.6256471    
     96000   297.86236      147.82419      242.38881      390.213        16423.981      3117.1054      1.6256471    
     97000   289.6111       139.55415      235.67426      375.22841      20307.04       3117.1054      1.6256471    
     98000   304.54655      143.83355      247.82815      391.6617       16918.309      3117.1054      1.6256471    
     99000   295.3907       135.85519      240.37747      376.23267      17059.917      3117.1054      1.6256471    
    100000   325.39443      146.56954      264.79334      411.36289      14629.309      3117.1054      1.6256471    
    100085   313.60482      148.16355      255.19941      403.36296      14127.811      3117.1054      1.6256471    
WARNING: Bond/angle/dihedral extent > half of periodic box length (src/domain.cpp:1174)
Loop time of 16.9307 on 1 procs for 100000 steps with 274 atoms

Performance: 510.314 ns/day, 0.047 hours/ns, 5906.415 timesteps/s, 1.618 Matom-step/s
99.5% CPU use with 1 MPI tasks x 1 OpenMP threads

MPI task timing breakdown:
Section |  min time  |  avg time  |  max time  |%varavg| %total
---------------------------------------------------------------
Pair    | 9.3935     | 9.3935     | 9.3935     |   0.0 | 55.48
Bond    | 2.76       | 2.76       | 2.76       |   0.0 | 16.30
Neigh   | 3.5154     | 3.5154     | 3.5154     |   0.0 | 20.76
Comm    | 0.49564    | 0.49564    | 0.49564    |   0.0 |  2.93
Output  | 0.39798    | 0.39798    | 0.39798    |   0.0 |  2.35
Modify  | 0.26328    | 0.26328    | 0.26328    |   0.0 |  1.56
Other   |            | 0.1049     |            |       |  0.62

Nlocal:            274 ave         274 max         274 min
Histogram: 1 0 0 0 0 0 0 0 0 0
Nghost:           2030 ave        2030 max        2030 min
Histogram: 1 0 0 0 0 0 0 0 0 0
Neighs:          16240 ave       16240 max       16240 min
Histogram: 1 0 0 0 0 0 0 0 0 0

Total # of neighbors = 16240
Ave neighs/atom = 59.270073
Ave special neighs/atom = 6.2116788
Neighbor list builds = 2070
Dangerous builds = 0
unfix           nvt_relax

fix npt_relax   all npt temp 300 300 ${thermal_damp} iso 0 0 ${pressure_damp}
fix npt_relax   all npt temp 300 300 100.0 iso 0 0 ${pressure_damp}
fix npt_relax   all npt temp 300 300 100.0 iso 0 0 500.0
run 100000      # 100 picoseconds
Generated 6 of 6 mixed pair_coeff terms from arithmetic mixing rule
WARNING: Inconsistent image flags
For more information see https://docs.lammps.org/err0027 (src/domain.cpp:1052)
WARNING: Bond/angle/dihedral extent > half of periodic box length (src/domain.cpp:1174)
Per MPI rank memory allocation (min/avg/max) = 17.44 | 17.44 | 17.44 Mbytes
   Step          Temp          PotEng         KinEng         TotEng         Press          Volume        Density    
    100085   313.60482      148.16355      255.19941      403.36296      14127.811      3117.1054      1.6256471    
    101000   285.37703      109.74943      232.22874      341.97817      3362.1343      3297.1825      1.5368616    
    102000   304.27482      133.05513      247.60702      380.66215     -2260.4044      3279.9169      1.5449517    
    103000   296.91739      143.24104      241.61984      384.86088     -1526.3431      3332.16        1.5207292    
    104000   291.79929      125.29818      237.45492      362.7531       961.2657       3335.0187      1.5194257    
    105000   319.77659      134.86992      260.22176      395.09168     -1179.7239      3343.3092      1.5156579    
    106000   280.24037      130.44022      228.04872      358.48894     -3089.0189      3343.8135      1.5154293    
    107000   309.13011      156.34486      251.55807      407.90293      326.3007       3351.386       1.5120052    
    108000   300.65061      126.88183      244.65779      371.53961      7089.2434      3335.2312      1.5193289    
    109000   308.04099      124.14924      250.67179      374.82103     -1063.7386      3352.2479      1.5116165    
    110000   299.57379      141.61256      243.78151      385.39407     -3705.9856      3393.97        1.4930342    
    111000   305.66461      111.72035      248.73798      360.45833      810.56208      3377.722       1.5002162    
    112000   319.13793      125.87349      259.70204      385.57554     -2226.8519      3310.65        1.5306097    
    113000   290.86107      123.30964      236.69144      360.00108      6627.534       3287.5516      1.5413638    
    114000   313.11127      124.77736      254.79779      379.57515     -1193.2983      3366.4871      1.5052228    
    115000   274.7879       129.60227      223.61172      353.21398     -751.9897       3319.4072      1.5265717    
    116000   305.94019      125.98898      248.96224      374.95122      4831.3449      3339.7226      1.5172856    
    117000   293.56011      125.43243      238.88781      364.32024     -6618.1004      3321.1482      1.5257714    
    118000   289.59602      122.7242       235.66199      358.38619     -5794.7325      3356.0072      1.5099232    
    119000   283.6908       149.61822      230.85655      380.47477      9784.0785      3310.7341      1.5305709    
    120000   283.01352      123.98325      230.3054       354.28866     -375.82411      3292.8909      1.5388646    
    121000   291.90336      115.83355      237.53962      353.37317     -408.86416      3332.826       1.5204253    
    122000   304.26372      135.18534      247.59799      382.78333      195.63021      3326.3367      1.5233915    
    123000   284.04857      115.81164      231.14769      346.95934     -2890.6687      3369.2206      1.5040016    
    124000   317.75891      122.33891      258.57985      380.91877      2713.5346      3360.7283      1.5078021    
    125000   274.23044      141.63386      223.15807      364.79193      90.725485      3299.8109      1.5356375    
    126000   285.45038      126.76365      232.28843      359.05208     -2831.5216      3355.4811      1.5101599    
    127000   291.70487      121.05         237.37809      358.42809     -1686.2343      3328.2174      1.5225307    
    128000   308.87747      125.27647      251.35248      376.62895      1701.0481      3353.3888      1.5111022    
    129000   295.11102      142.26567      240.14988      382.41555      7798.4847      3239.7401      1.564111     
    130000   294.60303      132.09109      239.7365       371.82759     -827.51188      3312.3131      1.5298412    
    131000   289.55211      112.95796      235.62625      348.58421     -2959.8234      3327.7377      1.5227502    
    132000   299.83585      116.94471      243.99476      360.93947     -1008.6653      3327.8713      1.522689     
    133000   311.60772      142.92705      253.57426      396.5013       1418.7026      3297.8084      1.5365699    
    134000   292.33041      128.4835       237.88713      366.37063      479.10441      3282.2761      1.5438412    
    135000   326.70315      139.42957      265.85833      405.2879       5127.5143      3314.3337      1.5289086    
    136000   291.14616      145.87953      236.92343      382.80297      3641.1423      3303.5419      1.5339031    
    137000   286.25566      112.6415       232.94373      345.58523     -2502.8244      3325.5826      1.523737     
    138000   308.52178      143.208        251.06304      394.27104     -1548.4817      3374.5071      1.5016454    
    139000   287.71632      153.0265       234.13236      387.15885      4358.3041      3294.4272      1.5381469    
    140000   297.97176      126.98769      242.47784      369.46552     -3495.4821      3340.3525      1.5169995    
    141000   288.55083      122.68745      234.81145      357.4989      -7843.4778      3380.3895      1.4990323    
    142000   286.97382      119.57948      233.52815      353.10763     -2051.2699      3376.8885      1.5005865    
    143000   293.08332      129.79003      238.49982      368.28984     -557.43142      3331.0413      1.52124      
    144000   307.02883      115.43379      249.84813      365.28193      1736.5397      3299.5645      1.5357521    
    145000   297.46237      138.60735      242.06332      380.67066      4605.6651      3338.2579      1.5179514    
    146000   264.7765       114.30151      215.46483      329.76633     -5399.3548      3328.5174      1.5223935    
    147000   302.92803      124.79286      246.51106      371.30391     -746.22575      3311.3635      1.5302799    
    148000   276.92928      146.15763      225.35429      371.51192     -610.07754      3314.9597      1.5286198    
    149000   279.55192      136.70917      227.48849      364.19766      2994.0418      3341.1654      1.5166304    
    150000   304.21315      134.60173      247.55684      382.15858     -2866.6265      3298.5829      1.5362091    
    151000   296.57644      139.02481      241.34239      380.3672      -3396.199       3336.0639      1.5189496    
    152000   306.05696      109.31759      249.05726      358.37485      8237.691       3283.1054      1.5434512    
    153000   304.87226      132.50917      248.0932       380.60236     -4313.9265      3327.9035      1.5226743    
    154000   300.91095      148.37606      244.86964      393.2457      -2062.3049      3325.4269      1.5238083    
    155000   303.18073      119.95809      246.7167       366.67479     -65.907982      3331.2473      1.5211459    
    156000   299.25166      134.09311      243.51938      377.61248     -3706.4533      3354.675       1.5105228    
    157000   294.96252      122.80786      240.02904      362.8369       554.10536      3334.284       1.5197605    
    158000   310.85728      130.07815      252.96357      383.04172     -383.86728      3345.9242      1.5144734    
    159000   316.68643      127.39787      257.70711      385.10498     -2854.4565      3336.0357      1.5189625    
    160000   280.79226      123.51824      228.49783      352.01607     -2104.9903      3379.2572      1.4995346    
    161000   277.60417      136.11146      225.90349      362.01495      1166.9983      3352.0857      1.5116896    
    162000   295.11715      152.52051      240.15487      392.67538      4781.4909      3339.1894      1.5175279    
    163000   292.41971      136.14169      237.9598       374.10149      8245.558       3307.9622      1.5318534    
    164000   304.734        167.15175      247.98069      415.13244      3064.1425      3333.325       1.5201978    
    165000   282.711        137.28566      230.05923      367.34488      4056.6445      3312.6863      1.5296689    
    166000   330.74955      125.12112      269.15113      394.27225      4545.8224      3323.69        1.5246046    
    167000   295.33612      122.93978      240.33306      363.27284      5571.0105      3295.3269      1.537727     
    168000   305.09469      141.45185      248.2742       389.72605     -1977.0738      3350.737       1.5122981    
    169000   300.12667      126.29879      244.23142      370.53021      6643.2767      3300.9541      1.5351056    
    170000   304.82777      134.13929      248.057        382.19628     -4983.5179      3343.1563      1.5157273    
    171000   269.51722      141.74299      219.32264      361.06563      2348.2861      3304.3703      1.5335186    
    172000   303.81995      147.5887       247.23687      394.82557     -7991.4135      3364.7783      1.5059873    
    173000   297.43994      129.70678      242.04507      371.75185     -1992.6116      3326.6956      1.5232272    
    174000   303.32681      113.33384      246.83557      360.16942      2490.4136      3339.1616      1.5175405    
    175000   330.27135      151.18992      268.76199      419.95192     -2503.9978      3319.7676      1.526406     
    176000   290.56499      120.87004      236.4505       357.32054      1395.0347      3323.4974      1.524693     
    177000   305.74926      145.24946      248.80687      394.05632      1171.4194      3366.0853      1.5054025    
    178000   306.46015      113.48466      249.38536      362.87002     -1839.4175      3325.8631      1.5236085    
    179000   301.33854      139.13709      245.2176       384.35469      1213.3492      3328.1432      1.5225647    
    180000   261.69648      135.12021      212.95843      348.07864      5345.1156      3294.7507      1.5379959    
    181000   306.19991      136.20239      249.17359      385.37598      2650.4555      3335.7394      1.5190974    
    182000   281.09874      119.86426      228.74723      348.61149      5205.7242      3300.3935      1.5353664    
    183000   304.23008      126.95313      247.57062      374.52375      1386.7408      3309.2491      1.5312577    
    184000   275.62694      125.35682      224.2945       349.65132     -4005.4245      3320.1629      1.5262243    
    185000   293.00656      125.51545      238.43736      363.95281      463.12988      3358.6279      1.508745     
    186000   283.56931      148.35442      230.75768      379.1121       7498.7965      3328.4953      1.5224036    
    187000   312.21151      121.05931      254.06559      375.12491     -462.94394      3319.9589      1.5263181    
    188000   283.7288       148.10658      230.88747      378.99405      85.237739      3372.5943      1.5024971    
    189000   283.73496      138.67145      230.89249      369.56394      1685.3492      3313.8266      1.5291425    
    190000   300.0788       153.52949      244.19247      397.72195     -4774.0725      3351.9129      1.5117676    
    191000   300.53052      126.4355       244.56006      370.99556     -1222.2998      3332.9777      1.5203562    
    192000   294.32438      135.34428      239.50975      374.85403      4631.7418      3319.3484      1.5265988    
    193000   309.50714      125.30596      251.86488      377.17084     -1700.6729      3331.152       1.5211894    
    194000   277.38781      110.37758      225.72742      336.105       -2007.7236      3364.2289      1.5062332    
    195000   302.19361      140.07914      245.91342      385.99256     -2421.7671      3313.33        1.5293717    
    196000   288.83295      126.00992      235.04103      361.05095      4408.0658      3325.9098      1.5235871    
    197000   308.77388      144.48779      251.26819      395.75597      4281.1713      3312.9332      1.5295549    
    198000   272.60476      116.30539      221.83516      338.14055      3233.9345      3342.4702      1.5160384    
    199000   283.30577      123.50237      230.54323      354.04559     -685.51071      3347.3463      1.51383      
    200000   293.45938      148.80828      238.80584      387.61412     -2718.1069      3351.198       1.51209      
    200085   306.50599      141.44123      249.42266      390.86389      1744.3211      3330.4181      1.5215246    
WARNING: Bond/angle/dihedral extent > half of periodic box length (src/domain.cpp:1174)
Loop time of 19.0334 on 1 procs for 100000 steps with 274 atoms

Performance: 453.939 ns/day, 0.053 hours/ns, 5253.924 timesteps/s, 1.440 Matom-step/s
99.6% CPU use with 1 MPI tasks x 1 OpenMP threads

MPI task timing breakdown:
Section |  min time  |  avg time  |  max time  |%varavg| %total
---------------------------------------------------------------
Pair    | 9.51       | 9.51       | 9.51       |   0.0 | 49.96
Bond    | 3.7979     | 3.7979     | 3.7979     |   0.0 | 19.95
Neigh   | 4.0324     | 4.0324     | 4.0324     |   0.0 | 21.19
Comm    | 0.50918    | 0.50918    | 0.50918    |   0.0 |  2.68
Output  | 0.4373     | 0.4373     | 0.4373     |   0.0 |  2.30
Modify  | 0.6256     | 0.6256     | 0.6256     |   0.0 |  3.29
Other   |            | 0.1211     |            |       |  0.64

Nlocal:            274 ave         274 max         274 min
Histogram: 1 0 0 0 0 0 0 0 0 0
Nghost:           1978 ave        1978 max        1978 min
Histogram: 1 0 0 0 0 0 0 0 0 0
Neighs:          15303 ave       15303 max       15303 min
Histogram: 1 0 0 0 0 0 0 0 0 0

Total # of neighbors = 15303
Ave neighs/atom = 55.850365
Ave special neighs/atom = 6.2116788
Neighbor list builds = 2422
Dangerous builds = 0
unfix           npt_relax

# fix nvt_heat    all nvt temp 300 1000 ${thermal_damp}
# run 100000      # 100 picoseconds
# unfix           nvt_heat
#
# fix npt_heat    all npt temp 1000 1000 ${thermal_damp} iso 0 0 ${pressure_damp}
# run 100000      # 100 picoseconds
# unfix           npt_heat
#
# fix cooling_npt all npt temp 1000 300 ${thermal_damp} iso 0 0 ${pressure_damp}
# run 700000      # 700 picoseconds
# unfix           cooling_npt
#
# fix npt_final   all npt temp 300 300 ${thermal_damp} iso 0 0 100
# run 100000      # 100 picoseconds
# unfix           npt_final

# density computation
variable rho equal density
fix integrate  all npt temp ${temp} ${temp} ${thermal_damp} iso 0 0 ${pressure_damp}
fix integrate  all npt temp 300 ${temp} ${thermal_damp} iso 0 0 ${pressure_damp}
fix integrate  all npt temp 300 300 ${thermal_damp} iso 0 0 ${pressure_damp}
fix integrate  all npt temp 300 300 100.0 iso 0 0 ${pressure_damp}
fix integrate  all npt temp 300 300 100.0 iso 0 0 500.0
fix rho50k all ave/time 10 5000 50000 v_rho mode scalar ave one
run 50000
Generated 6 of 6 mixed pair_coeff terms from arithmetic mixing rule
WARNING: Inconsistent image flags
For more information see https://docs.lammps.org/err0027 (src/domain.cpp:1052)
WARNING: Bond/angle/dihedral extent > half of periodic box length (src/domain.cpp:1174)
Per MPI rank memory allocation (min/avg/max) = 17.44 | 17.44 | 17.44 Mbytes
   Step          Temp          PotEng         KinEng         TotEng         Press          Volume        Density    
    200085   306.50599      141.44123      249.42266      390.86389      1744.3211      3330.4181      1.5215246    
    201000   295.30849      114.48794      240.31057      354.79851     -151.74639      3333.0277      1.5203334    
    202000   306.88861      163.52678      249.73403      413.26081     -930.50759      3327.5437      1.522839     
    203000   285.79405      131.86401      232.5681       364.4321      -3451.8361      3388.4188      1.4954802    
    204000   302.04606      127.0094       245.79335      372.80275     -5438.5678      3361.2729      1.5075578    
    205000   331.351        110.1855       269.64057      379.82607      933.06272      3291.1511      1.5396781    
    206000   291.02058      112.97902      236.82124      349.80026      7282.4383      3311.8873      1.5300379    
    207000   305.34142      128.65804      248.47498      377.13302      4993.1565      3319.0668      1.5267283    
    208000   305.09643      112.61105      248.27562      360.88668     -8096.8294      3353.0419      1.5112585    
    209000   322.19171      136.42986      262.18709      398.61695      2467.4168      3307.6497      1.5319981    
    210000   320.41326      126.39496      260.73986      387.13481      7805.0351      3320.2587      1.5261802    
    211000   273.30357      142.32177      222.40382      364.7256      -9182.1301      3350.8831      1.5122321    
    212000   290.03969      136.49101      236.02303      372.51403      676.42647      3328.1579      1.5225579    
    213000   273.74911      122.93857      222.76639      345.70495      6785.8219      3298.8855      1.5360682    
    214000   297.30972      128.99078      241.9391       370.92989      914.54283      3352.7305      1.5113989    
    215000   280.91807      105.86447      228.60021      334.46468     -5172.7248      3377.2148      1.5004415    
    216000   307.32835      130.02091      250.09187      380.11278      562.22757      3354.8307      1.5104527    
    217000   290.48192      111.59272      236.3829       347.97562     -3169.0419      3326.0258      1.5235339    
    218000   300.20216      140.07976      244.29285      384.37261     -759.58611      3380.3988      1.4990282    
    219000   289.29531      139.35512      235.41729      374.77241     -3221.605       3333.5363      1.5201014    
    220000   265.04124      135.25326      215.68027      350.93353      2065.8246      3345.3767      1.5147212    
    221000   296.26401      137.14704      241.08814      378.23518     -4001.2565      3312.0899      1.5299443    
    222000   299.17631      102.23317      243.45805      345.69123      4548.3679      3262.1199      1.5533804    
    223000   304.19196      134.73804      247.5396       382.27764      2022.0098      3315.8249      1.528221     
    224000   304.36152      142.79306      247.67758      390.47064      1127.0388      3303.9413      1.5337177    
    225000   302.99289      143.05918      246.56384      389.62302     -316.90508      3338.2498      1.517955     
    226000   323.67811      115.57771      263.39667      378.97439     -2100.7079      3345.3871      1.5147165    
    227000   303.14602      141.75857      246.68845      388.44702     -1510.5934      3348.6547      1.5132385    
    228000   315.1377       136.24043      256.44681      392.68724     -7490.0565      3328.7238      1.5222991    
    229000   300.09907      143.26269      244.20896      387.47165      6469.4511      3335.6508      1.5191378    
    230000   290.35245      120.59351      236.27754      356.87105     -4216.714       3305.5872      1.532954     
    231000   311.90471      132.78692      253.81594      386.60285      0.63551801     3299.1003      1.5359682    
    232000   301.23685      136.93502      245.13485      382.06987      3673.2084      3293.8345      1.5384237    
    233000   290.62598      126.73542      236.50013      363.23555     -3261.8594      3324.2135      1.5243645    
    234000   306.98178      130.36929      249.80985      380.17913     -1329.8885      3316.6755      1.527829     
    235000   276.36605      126.77249      224.89595      351.66844     -1652.3959      3341.6507      1.5164102    
    236000   300.14925      131.97694      244.2498       376.22673      1775.6541      3349.1867      1.5129981    
    237000   300.74786      123.47965      244.73692      368.21657     -1933.6888      3345.3704      1.5147241    
    238000   317.29171      132.93047      258.19966      391.13013      1961.9099      3320.5944      1.5260259    
    239000   284.32386      106.25776      231.37171      337.62948      3701.5278      3362.0017      1.507231     
    240000   294.89029      130.29837      239.97026      370.26864      2630.4509      3313.9288      1.5290954    
    241000   296.15033      147.76625      240.99563      388.76188     -2624.1056      3344.1686      1.5152684    
    242000   305.63545      147.55405      248.71426      396.26831      3418.4025      3340.6759      1.5168527    
    243000   313.63663      121.27807      255.2253       376.50338     -5830.2309      3370.4487      1.5034536    
    244000   278.00499      140.76067      226.22966      366.99032     -1350.9964      3376.9424      1.5005625    
    245000   305.90534      137.27027      248.93388      386.20415      4696.3154      3319.088       1.5267185    
    246000   320.21515      142.30708      260.57865      402.88572     -2681.7723      3360.3287      1.5079814    
    247000   296.83521      118.8065       241.55296      360.35946      2147.2166      3332.1262      1.5207447    
    248000   295.96093      151.24046      240.84151      392.08197      768.24694      3302.53        1.5343731    
    249000   293.07555      117.5749       238.4935       356.0684       439.79219      3329.2163      1.5220739    
    250000   277.36264      130.40961      225.70694      356.11655      1091.2435      3326.5947      1.5232734    
    250085   268.28922      126.26494      218.32334      344.58828     -6576.9081      3347.0027      1.5139854    
Loop time of 8.53278 on 1 procs for 50000 steps with 274 atoms

Performance: 506.283 ns/day, 0.047 hours/ns, 5859.753 timesteps/s, 1.606 Matom-step/s
99.7% CPU use with 1 MPI tasks x 1 OpenMP threads

MPI task timing breakdown:
Section |  min time  |  avg time  |  max time  |%varavg| %total
---------------------------------------------------------------
Pair    | 4.3017     | 4.3017     | 4.3017     |   0.0 | 50.41
Bond    | 1.7228     | 1.7228     | 1.7228     |   0.0 | 20.19
Neigh   | 1.7527     | 1.7527     | 1.7527     |   0.0 | 20.54
Comm    | 0.22878    | 0.22878    | 0.22878    |   0.0 |  2.68
Output  | 0.18756    | 0.18756    | 0.18756    |   0.0 |  2.20
Modify  | 0.28456    | 0.28456    | 0.28456    |   0.0 |  3.33
Other   |            | 0.0547     |            |       |  0.64

Nlocal:            274 ave         274 max         274 min
Histogram: 1 0 0 0 0 0 0 0 0 0
Nghost:           1924 ave        1924 max        1924 min
Histogram: 1 0 0 0 0 0 0 0 0 0
Neighs:          15088 ave       15088 max       15088 min
Histogram: 1 0 0 0 0 0 0 0 0 0

Total # of neighbors = 15088
Ave neighs/atom = 55.065693
Ave special neighs/atom = 6.2116788
Neighbor list builds = 1160
Dangerous builds = 0
unfix integrate
unfix rho50k

# Compute initial state
fix 3 all box/relax  aniso 0.0
minimize ${etol} ${ftol} ${maxiter} ${maxeval}
minimize 0 ${ftol} ${maxiter} ${maxeval}
minimize 0 1e-10 ${maxiter} ${maxeval}
minimize 0 1e-10 100000 ${maxeval}
minimize 0 1e-10 100000 100000
Generated 6 of 6 mixed pair_coeff terms from arithmetic mixing rule
WARNING: Energy due to 3 extra global DOFs will be included in minimizer energies
 (src/min.cpp:222)
WARNING: Inconsistent image flags
For more information see https://docs.lammps.org/err0027 (src/domain.cpp:1052)
Per MPI rank memory allocation (min/avg/max) = 18.55 | 18.55 | 18.55 Mbytes
   Step          Temp          PotEng         KinEng         TotEng         Press          Volume        Density    
    250085   268.28922      126.26494      218.32334      344.58828     -6576.9081      3347.0027      1.5139854    
    250437   268.28922     -58.38194       218.32334      159.9414       3251.2009      3317.7453      1.5273364    
Loop time of 0.0710063 on 1 procs for 352 steps with 274 atoms

97.4% CPU use with 1 MPI tasks x 1 OpenMP threads

Minimization stats:
  Stopping criterion = linesearch alpha is zero
  Energy initial, next-to-last, final = 
       126.26494367005  -58.3819403722212  -58.3819403722212
  Force two-norm initial, final = 1030.1261 85.893786
  Force max component initial, final = 642.4884 11.904008
  Final line search alpha, max atom move = 1.0014215e-12 1.1920929e-11
  Iterations, force evaluations = 352 485

MPI task timing breakdown:
Section |  min time  |  avg time  |  max time  |%varavg| %total
---------------------------------------------------------------
Pair    | 0.04297    | 0.04297    | 0.04297    |   0.0 | 60.52
Bond    | 0.01603    | 0.01603    | 0.01603    |   0.0 | 22.58
Neigh   | 0          | 0          | 0          |   0.0 |  0.00
Comm    | 0.0017464  | 0.0017464  | 0.0017464  |   0.0 |  2.46
Output  | 0.0013492  | 0.0013492  | 0.0013492  |   0.0 |  1.90
Modify  | 0          | 0          | 0          |   0.0 |  0.00
Other   |            | 0.00891    |            |       | 12.55

Nlocal:            274 ave         274 max         274 min
Histogram: 1 0 0 0 0 0 0 0 0 0
Nghost:           1930 ave        1930 max        1930 min
Histogram: 1 0 0 0 0 0 0 0 0 0
Neighs:          15143 ave       15143 max       15143 min
Histogram: 1 0 0 0 0 0 0 0 0 0

Total # of neighbors = 15143
Ave neighs/atom = 55.266423
Ave special neighs/atom = 6.2116788
Neighbor list builds = 0
Dangerous builds = 0

variable tmp equal pxx
variable pxx0 equal ${tmp}
variable pxx0 equal 3295.13536909789
variable tmp equal pyy
variable pyy0 equal ${tmp}
variable pyy0 equal 3189.69286459964
variable tmp equal pzz
variable pzz0 equal ${tmp}
variable pzz0 equal 3268.77441037269
variable tmp equal pyz
variable pyz0 equal ${tmp}
variable pyz0 equal 2939.53151042336
variable tmp equal pxz
variable pxz0 equal ${tmp}
variable pxz0 equal -2028.59529121235
variable tmp equal pxy
variable pxy0 equal ${tmp}
variable pxy0 equal 2340.82222620013

variable tmp equal lx
variable lx0 equal ${tmp}
variable lx0 equal 15.906876969082
variable tmp equal ly
variable ly0 equal ${tmp}
variable ly0 equal 12.6505308218205
variable tmp equal lz
variable lz0 equal ${tmp}
variable lz0 equal 16.4872934751279

# These formulas define the derivatives w.r.t. strain components
# Constants uses $, variables use v_
variable d1 equal -(v_pxx1-${pxx0})/(v_delta/v_len0)*${cfac}
variable d1 equal -(v_pxx1-3295.13536909789)/(v_delta/v_len0)*${cfac}
variable d1 equal -(v_pxx1-3295.13536909789)/(v_delta/v_len0)*0.0001
variable d2 equal -(v_pyy1-${pyy0})/(v_delta/v_len0)*${cfac}
variable d2 equal -(v_pyy1-3189.69286459964)/(v_delta/v_len0)*${cfac}
variable d2 equal -(v_pyy1-3189.69286459964)/(v_delta/v_len0)*0.0001
variable d3 equal -(v_pzz1-${pzz0})/(v_delta/v_len0)*${cfac}
variable d3 equal -(v_pzz1-3268.77441037269)/(v_delta/v_len0)*${cfac}
variable d3 equal -(v_pzz1-3268.77441037269)/(v_delta/v_len0)*0.0001
variable d4 equal -(v_pyz1-${pyz0})/(v_delta/v_len0)*${cfac}
variable d4 equal -(v_pyz1-2939.53151042336)/(v_delta/v_len0)*${cfac}
variable d4 equal -(v_pyz1-2939.53151042336)/(v_delta/v_len0)*0.0001
variable d5 equal -(v_pxz1-${pxz0})/(v_delta/v_len0)*${cfac}
variable d5 equal -(v_pxz1--2028.59529121235)/(v_delta/v_len0)*${cfac}
variable d5 equal -(v_pxz1--2028.59529121235)/(v_delta/v_len0)*0.0001
variable d6 equal -(v_pxy1-${pxy0})/(v_delta/v_len0)*${cfac}
variable d6 equal -(v_pxy1-2340.82222620013)/(v_delta/v_len0)*${cfac}
variable d6 equal -(v_pxy1-2340.82222620013)/(v_delta/v_len0)*0.0001

# displace_atoms all random ${atomjiggle} ${atomjiggle} ${atomjiggle} 87287 units box

# Write restart
unfix 3
write_restart restart_333-EXP-11-vasp.equil
System init for write_restart ...
Generated 6 of 6 mixed pair_coeff terms from arithmetic mixing rule

# uxx Perturbation

variable dir equal 1
include ./input/displace_333-EXP-11-vasp.mod
if "${dir} == 1" then    "variable len0 equal ${lx0}"
variable len0 equal ${lx0}
variable len0 equal 15.906876969082
if "${dir} == 2" then    "variable len0 equal ${ly0}"
if "${dir} == 3" then    "variable len0 equal ${lz0}"
if "${dir} == 4" then    "variable len0 equal ${lz0}"
if "${dir} == 5" then    "variable len0 equal ${lz0}"
if "${dir} == 6" then    "variable len0 equal ${ly0}"

# Reset box and simulation parameters

clear
OMP_NUM_THREADS environment is not set. Defaulting to 1 thread.
  using 1 OpenMP thread(s) per MPI task
box tilt large

The 'box' command has been removed and will be ignored

read_restart restart_333-EXP-11-vasp.equil
Reading restart file ...
  restart file = 10 Sep 2025, LAMMPS = 10 Sep 2025
  restoring atom style full from restart
  triclinic box = (-0.14150848 -0.11986291 -0.20592074) to (15.765368 12.530668 16.281373) with tilt (-8.5416134 1.2256099 0.44220088)
WARNING: Triclinic box skew is large. LAMMPS will run inefficiently. (src/domain.cpp:221)
  1 by 1 by 1 MPI processor grid
  restoring pair style lj/cut from restart
  restoring bond style harmonic from restart
  restoring angle style hybrid from restart
  restoring dihedral style harmonic from restart
  274 atoms
  294 bonds
  557 angles
  696 dihedrals
Finding 1-2 1-3 1-4 neighbors ...
  special bond factors lj:    0        0        1       
  special bond factors coul:  0        0        1       
     4 = max # of 1-2 neighbors
     8 = max # of 1-3 neighbors
    12 = max # of special neighbors
  special bonds CPU = 0.000 seconds
  read_restart CPU = 0.002 seconds
include ./input/angles_333-EXP-11-vasp.mod
angle_style hybrid fourier cosine/periodic
angle_coeff 1 fourier 157.882480        0.343737        0.374972        0.281246
angle_coeff 2 fourier 221.735285        0.343737        0.374972        0.281246
angle_coeff 3 fourier 83.380072        0.343737        0.374972        0.281246
angle_coeff 4 fourier 58.020602        0.343737        0.374972        0.281246
angle_coeff 5 fourier 114.246973        0.343737        0.374972        0.281246
angle_coeff 6 fourier 32.417871        0.343737        0.374972        0.281246
angle_coeff 7 fourier 90.420412        0.343737        0.374972        0.281246
angle_coeff 8 fourier 75.498766        0.343737        0.374972        0.281246
angle_coeff 9 cosine/periodic 88.853997              -1               3

# Negative deformation

variable delta equal -${up}*${len0}
variable delta equal -0.02*${len0}
variable delta equal -0.02*15.906876969082
variable deltaxy equal -${up}*xy
variable deltaxy equal -0.02*xy
variable deltaxz equal -${up}*xz
variable deltaxz equal -0.02*xz
variable deltayz equal -${up}*yz
variable deltayz equal -0.02*yz
if "${dir} == 1" then    "change_box all x delta 0 ${delta} xy delta ${deltaxy} xz delta ${deltaxz} remap units box"
change_box all x delta 0 ${delta} xy delta ${deltaxy} xz delta ${deltaxz} remap units box
change_box all x delta 0 -0.31813753938164 xy delta ${deltaxy} xz delta ${deltaxz} remap units box
change_box all x delta 0 -0.31813753938164 xy delta 0.170832268019163 xz delta ${deltaxz} remap units box
change_box all x delta 0 -0.31813753938164 xy delta 0.170832268019163 xz delta -0.0245121981843012 remap units box
Changing box ...
WARNING: Triclinic box skew is large. LAMMPS will run inefficiently. (src/domain.cpp:221)
  triclinic box = (-0.14150848 -0.11986291 -0.20592074) to (15.447231 12.530668 16.281373) with tilt (-8.5416134 1.2256099 0.44220088)
WARNING: Triclinic box skew is large. LAMMPS will run inefficiently. (src/domain.cpp:221)
  triclinic box = (-0.14150848 -0.11986291 -0.20592074) to (15.447231 12.530668 16.281373) with tilt (-8.3707811 1.2256099 0.44220088)
WARNING: Triclinic box skew is large. LAMMPS will run inefficiently. (src/domain.cpp:221)
  triclinic box = (-0.14150848 -0.11986291 -0.20592074) to (15.447231 12.530668 16.281373) with tilt (-8.3707811 1.2010977 0.44220088)
if "${dir} == 2" then    "change_box all y delta 0 ${delta} yz delta ${deltayz} remap units box"
if "${dir} == 3" then    "change_box all z delta 0 ${delta} remap units box"
if "${dir} == 4" then    "change_box all yz delta ${delta} remap units box"
if "${dir} == 5" then    "change_box all xz delta ${delta} remap units box"
if "${dir} == 6" then    "change_box all xy delta ${delta} remap units box"

# Relax atoms positions

minimize ${etol} ${ftol} ${maxiter} ${maxeval}
minimize 0 ${ftol} ${maxiter} ${maxeval}
minimize 0 1e-10 ${maxiter} ${maxeval}
minimize 0 1e-10 100000 ${maxeval}
minimize 0 1e-10 100000 100000
Generated 6 of 6 mixed pair_coeff terms from arithmetic mixing rule
Neighbor list info ...
  update: every = 1 steps, delay = 0 steps, check = yes
  max neighbors/atom: 2000, page size: 100000
  master list distance cutoff = 7
  ghost atom cutoff = 7
  binsize = 3.5, bins = 8 4 5
  1 neighbor lists, perpetual/occasional/extra = 1 0 0
  (1) pair lj/cut, perpetual
      attributes: half, newton on
      pair build: half/bin/newton/tri
      stencil: half/bin/3d/tri
      bin: standard
WARNING: Inconsistent image flags
For more information see https://docs.lammps.org/err0027 (src/domain.cpp:1052)
Per MPI rank memory allocation (min/avg/max) = 17.49 | 17.49 | 17.49 Mbytes
   Step          Temp          E_pair         E_mol          TotEng         Press     
    250437   268.28922     -337.48869      302.97425      183.80891      25967.906    
    250470   268.28922     -360.79761      242.50386      100.02959      3838.8852    
Loop time of 0.0152032 on 1 procs for 33 steps with 274 atoms

100.0% CPU use with 1 MPI tasks x 1 OpenMP threads

Minimization stats:
  Stopping criterion = linesearch alpha is zero
  Energy initial, next-to-last, final = 
      -34.514434636958  -118.293747564893  -118.293747564893
  Force two-norm initial, final = 183.93578 17.538626
  Force max component initial, final = 23.101059 2.2227587
  Final line search alpha, max atom move = 2.3680278e-11 5.2635544e-11
  Iterations, force evaluations = 33 122

MPI task timing breakdown:
Section |  min time  |  avg time  |  max time  |%varavg| %total
---------------------------------------------------------------
Pair    | 0.011044   | 0.011044   | 0.011044   |   0.0 | 72.64
Bond    | 0.0034125  | 0.0034125  | 0.0034125  |   0.0 | 22.45
Neigh   | 0          | 0          | 0          |   0.0 |  0.00
Comm    | 0.00045621 | 0.00045621 | 0.00045621 |   0.0 |  3.00
Output  | 0          | 0          | 0          |   0.0 |  0.00
Modify  | 0          | 0          | 0          |   0.0 |  0.00
Other   |            | 0.0002904  |            |       |  1.91

Nlocal:            274 ave         274 max         274 min
Histogram: 1 0 0 0 0 0 0 0 0 0
Nghost:           1980 ave        1980 max        1980 min
Histogram: 1 0 0 0 0 0 0 0 0 0
Neighs:          15579 ave       15579 max       15579 min
Histogram: 1 0 0 0 0 0 0 0 0 0

Total # of neighbors = 15579
Ave neighs/atom = 56.857664
Ave special neighs/atom = 6.2116788
Neighbor list builds = 0
Dangerous builds = 0

# Obtain new stress tensor

variable tmp equal pxx
variable pxx1 equal ${tmp}
variable pxx1 equal 6165.98159397743
variable tmp equal pyy
variable pyy1 equal ${tmp}
variable pyy1 equal 332.306740401447
variable tmp equal pzz
variable pzz1 equal ${tmp}
variable pzz1 equal 5018.36721446477
variable tmp equal pxy
variable pxy1 equal ${tmp}
variable pxy1 equal 5060.3787963347
variable tmp equal pxz
variable pxz1 equal ${tmp}
variable pxz1 equal -2897.43854710008
variable tmp equal pyz
variable pyz1 equal ${tmp}
variable pyz1 equal 2261.01703168179

# Compute elastic constant from pressure tensor

variable C1neg equal ${d1}
variable C1neg equal 14.3542311243977
variable C2neg equal ${d2}
variable C2neg equal -14.286930620991
variable C3neg equal ${d3}
variable C3neg equal 8.7479640204604
variable C4neg equal ${d4}
variable C4neg equal -3.39257239370785
variable C5neg equal ${d5}
variable C5neg equal -4.34421627943865
variable C6neg equal ${d6}
variable C6neg equal 13.5977828506729

# Reset box and simulation parameters

clear
OMP_NUM_THREADS environment is not set. Defaulting to 1 thread.
  using 1 OpenMP thread(s) per MPI task
box tilt large

The 'box' command has been removed and will be ignored

read_restart restart_333-EXP-11-vasp.equil
Reading restart file ...
  restart file = 10 Sep 2025, LAMMPS = 10 Sep 2025
  restoring atom style full from restart
  triclinic box = (-0.14150848 -0.11986291 -0.20592074) to (15.765368 12.530668 16.281373) with tilt (-8.5416134 1.2256099 0.44220088)
WARNING: Triclinic box skew is large. LAMMPS will run inefficiently. (src/domain.cpp:221)
  1 by 1 by 1 MPI processor grid
  restoring pair style lj/cut from restart
  restoring bond style harmonic from restart
  restoring angle style hybrid from restart
  restoring dihedral style harmonic from restart
  274 atoms
  294 bonds
  557 angles
  696 dihedrals
Finding 1-2 1-3 1-4 neighbors ...
  special bond factors lj:    0        0        1       
  special bond factors coul:  0        0        1       
     4 = max # of 1-2 neighbors
     8 = max # of 1-3 neighbors
    12 = max # of special neighbors
  special bonds CPU = 0.000 seconds
  read_restart CPU = 0.001 seconds
include ./input/angles_333-EXP-11-vasp.mod
angle_style hybrid fourier cosine/periodic
angle_coeff 1 fourier 157.882480        0.343737        0.374972        0.281246
angle_coeff 2 fourier 221.735285        0.343737        0.374972        0.281246
angle_coeff 3 fourier 83.380072        0.343737        0.374972        0.281246
angle_coeff 4 fourier 58.020602        0.343737        0.374972        0.281246
angle_coeff 5 fourier 114.246973        0.343737        0.374972        0.281246
angle_coeff 6 fourier 32.417871        0.343737        0.374972        0.281246
angle_coeff 7 fourier 90.420412        0.343737        0.374972        0.281246
angle_coeff 8 fourier 75.498766        0.343737        0.374972        0.281246
angle_coeff 9 cosine/periodic 88.853997              -1               3

# Positive deformation

variable delta equal ${up}*${len0}
variable delta equal 0.02*${len0}
variable delta equal 0.02*15.906876969082
variable deltaxy equal ${up}*xy
variable deltaxy equal 0.02*xy
variable deltaxz equal ${up}*xz
variable deltaxz equal 0.02*xz
variable deltayz equal ${up}*yz
variable deltayz equal 0.02*yz
if "${dir} == 1" then    "change_box all x delta 0 ${delta} xy delta ${deltaxy} xz delta ${deltaxz} remap units box"
change_box all x delta 0 ${delta} xy delta ${deltaxy} xz delta ${deltaxz} remap units box
change_box all x delta 0 0.31813753938164 xy delta ${deltaxy} xz delta ${deltaxz} remap units box
change_box all x delta 0 0.31813753938164 xy delta -0.170832268019163 xz delta ${deltaxz} remap units box
change_box all x delta 0 0.31813753938164 xy delta -0.170832268019163 xz delta 0.0245121981843012 remap units box
Changing box ...
WARNING: Triclinic box skew is large. LAMMPS will run inefficiently. (src/domain.cpp:221)
  triclinic box = (-0.14150848 -0.11986291 -0.20592074) to (16.083506 12.530668 16.281373) with tilt (-8.5416134 1.2256099 0.44220088)
WARNING: Triclinic box skew is large. LAMMPS will run inefficiently. (src/domain.cpp:221)
  triclinic box = (-0.14150848 -0.11986291 -0.20592074) to (16.083506 12.530668 16.281373) with tilt (-8.7124457 1.2256099 0.44220088)
WARNING: Triclinic box skew is large. LAMMPS will run inefficiently. (src/domain.cpp:221)
  triclinic box = (-0.14150848 -0.11986291 -0.20592074) to (16.083506 12.530668 16.281373) with tilt (-8.7124457 1.2501221 0.44220088)
if "${dir} == 2" then    "change_box all y delta 0 ${delta} yz delta ${deltayz} remap units box"
if "${dir} == 3" then    "change_box all z delta 0 ${delta} remap units box"
if "${dir} == 4" then    "change_box all yz delta ${delta} remap units box"
if "${dir} == 5" then    "change_box all xz delta ${delta} remap units box"
if "${dir} == 6" then    "change_box all xy delta ${delta} remap units box"

# Relax atoms positions

minimize ${etol} ${ftol} ${maxiter} ${maxeval}
minimize 0 ${ftol} ${maxiter} ${maxeval}
minimize 0 1e-10 ${maxiter} ${maxeval}
minimize 0 1e-10 100000 ${maxeval}
minimize 0 1e-10 100000 100000
Generated 6 of 6 mixed pair_coeff terms from arithmetic mixing rule
Neighbor list info ...
  update: every = 1 steps, delay = 0 steps, check = yes
  max neighbors/atom: 2000, page size: 100000
  master list distance cutoff = 7
  ghost atom cutoff = 7
  binsize = 3.5, bins = 8 4 5
  1 neighbor lists, perpetual/occasional/extra = 1 0 0
  (1) pair lj/cut, perpetual
      attributes: half, newton on
      pair build: half/bin/newton/tri
      stencil: half/bin/3d/tri
      bin: standard
WARNING: Inconsistent image flags
For more information see https://docs.lammps.org/err0027 (src/domain.cpp:1052)
WARNING: Bond/angle/dihedral extent > half of periodic box length (src/domain.cpp:1174)
Per MPI rank memory allocation (min/avg/max) = 17.49 | 17.49 | 17.49 Mbytes
   Step          Temp          E_pair         E_mol          TotEng         Press     
    250437   268.28922     -352.99731      316.66931      181.99534     -18806.351    
    250480   268.28922     -362.03062      246.66426      102.95697     -2965.8252    
Loop time of 0.0172143 on 1 procs for 43 steps with 274 atoms

100.0% CPU use with 1 MPI tasks x 1 OpenMP threads

Minimization stats:
  Stopping criterion = linesearch alpha is zero
  Energy initial, next-to-last, final = 
     -36.3280051783177  -115.366367625185  -115.366367625185
  Force two-norm initial, final = 179.33931 12.864276
  Force max component initial, final = 24.391113 2.2611251
  Final line search alpha, max atom move = 5.0573207e-11 1.1435235e-10
  Iterations, force evaluations = 43 141

MPI task timing breakdown:
Section |  min time  |  avg time  |  max time  |%varavg| %total
---------------------------------------------------------------
Pair    | 0.012317   | 0.012317   | 0.012317   |   0.0 | 71.55
Bond    | 0.0040002  | 0.0040002  | 0.0040002  |   0.0 | 23.24
Neigh   | 0          | 0          | 0          |   0.0 |  0.00
Comm    | 0.00051662 | 0.00051662 | 0.00051662 |   0.0 |  3.00
Output  | 0          | 0          | 0          |   0.0 |  0.00
Modify  | 0          | 0          | 0          |   0.0 |  0.00
Other   |            | 0.0003806  |            |       |  2.21

Nlocal:            274 ave         274 max         274 min
Histogram: 1 0 0 0 0 0 0 0 0 0
Nghost:           1922 ave        1922 max        1922 min
Histogram: 1 0 0 0 0 0 0 0 0 0
Neighs:          14945 ave       14945 max       14945 min
Histogram: 1 0 0 0 0 0 0 0 0 0

Total # of neighbors = 14945
Ave neighs/atom = 54.543796
Ave special neighs/atom = 6.2116788
Neighbor list builds = 0
Dangerous builds = 0

# Obtain new stress tensor

variable tmp equal pe
variable e1 equal ${tmp}
variable e1 equal -115.366367625185
variable tmp equal press
variable p1 equal ${tmp}
variable p1 equal -2965.82518584645
variable tmp equal pxx
variable pxx1 equal ${tmp}
variable pxx1 equal -5022.25155373445
variable tmp equal pyy
variable pyy1 equal ${tmp}
variable pyy1 equal -4317.0126118158
variable tmp equal pzz
variable pzz1 equal ${tmp}
variable pzz1 equal 441.788608010918
variable tmp equal pxy
variable pxy1 equal ${tmp}
variable pxy1 equal 4410.75343853802
variable tmp equal pxz
variable pxz1 equal ${tmp}
variable pxz1 equal -3550.61879683226
variable tmp equal pyz
variable pyz1 equal ${tmp}
variable pyz1 equal 747.700708443882

# Compute elastic constant from pressure tensor

variable C1pos equal ${d1}
variable C1pos equal 41.5869346141617
variable C2pos equal ${d2}
variable C2pos equal 37.5335273820772
variable C3pos equal ${d3}
variable C3pos equal 14.1349290118089
variable C4pos equal ${d4}
variable C4pos equal 10.9591540098974
variable C5pos equal ${d5}
variable C5pos equal 7.61011752809955
variable C6pos equal ${d6}
variable C6pos equal -10.3496560616895

# Combine positive and negative

variable C1${dir} equal 0.5*(${C1neg}+${C1pos})
variable C11 equal 0.5*(${C1neg}+${C1pos})
variable C11 equal 0.5*(14.3542311243977+${C1pos})
variable C11 equal 0.5*(14.3542311243977+41.5869346141617)
variable C2${dir} equal 0.5*(${C2neg}+${C2pos})
variable C21 equal 0.5*(${C2neg}+${C2pos})
variable C21 equal 0.5*(-14.286930620991+${C2pos})
variable C21 equal 0.5*(-14.286930620991+37.5335273820772)
variable C3${dir} equal 0.5*(${C3neg}+${C3pos})
variable C31 equal 0.5*(${C3neg}+${C3pos})
variable C31 equal 0.5*(8.7479640204604+${C3pos})
variable C31 equal 0.5*(8.7479640204604+14.1349290118089)
variable C4${dir} equal 0.5*(${C4neg}+${C4pos})
variable C41 equal 0.5*(${C4neg}+${C4pos})
variable C41 equal 0.5*(-3.39257239370785+${C4pos})
variable C41 equal 0.5*(-3.39257239370785+10.9591540098974)
variable C5${dir} equal 0.5*(${C5neg}+${C5pos})
variable C51 equal 0.5*(${C5neg}+${C5pos})
variable C51 equal 0.5*(-4.34421627943865+${C5pos})
variable C51 equal 0.5*(-4.34421627943865+7.61011752809955)
variable C6${dir} equal 0.5*(${C6neg}+${C6pos})
variable C61 equal 0.5*(${C6neg}+${C6pos})
variable C61 equal 0.5*(13.5977828506729+${C6pos})
variable C61 equal 0.5*(13.5977828506729+-10.3496560616895)

# Delete dir to make sure it is not reused

variable dir delete

# uyy Perturbation

variable dir equal 2
include ./input/displace_333-EXP-11-vasp.mod
if "${dir} == 1" then    "variable len0 equal ${lx0}"
if "${dir} == 2" then    "variable len0 equal ${ly0}"
variable len0 equal ${ly0}
variable len0 equal 12.6505308218205
if "${dir} == 3" then    "variable len0 equal ${lz0}"
if "${dir} == 4" then    "variable len0 equal ${lz0}"
if "${dir} == 5" then    "variable len0 equal ${lz0}"
if "${dir} == 6" then    "variable len0 equal ${ly0}"

# Reset box and simulation parameters

clear
OMP_NUM_THREADS environment is not set. Defaulting to 1 thread.
  using 1 OpenMP thread(s) per MPI task
box tilt large

The 'box' command has been removed and will be ignored

read_restart restart_333-EXP-11-vasp.equil
Reading restart file ...
  restart file = 10 Sep 2025, LAMMPS = 10 Sep 2025
  restoring atom style full from restart
  triclinic box = (-0.14150848 -0.11986291 -0.20592074) to (15.765368 12.530668 16.281373) with tilt (-8.5416134 1.2256099 0.44220088)
WARNING: Triclinic box skew is large. LAMMPS will run inefficiently. (src/domain.cpp:221)
  1 by 1 by 1 MPI processor grid
  restoring pair style lj/cut from restart
  restoring bond style harmonic from restart
  restoring angle style hybrid from restart
  restoring dihedral style harmonic from restart
  274 atoms
  294 bonds
  557 angles
  696 dihedrals
Finding 1-2 1-3 1-4 neighbors ...
  special bond factors lj:    0        0        1       
  special bond factors coul:  0        0        1       
     4 = max # of 1-2 neighbors
     8 = max # of 1-3 neighbors
    12 = max # of special neighbors
  special bonds CPU = 0.000 seconds
  read_restart CPU = 0.001 seconds
include ./input/angles_333-EXP-11-vasp.mod
angle_style hybrid fourier cosine/periodic
angle_coeff 1 fourier 157.882480        0.343737        0.374972        0.281246
angle_coeff 2 fourier 221.735285        0.343737        0.374972        0.281246
angle_coeff 3 fourier 83.380072        0.343737        0.374972        0.281246
angle_coeff 4 fourier 58.020602        0.343737        0.374972        0.281246
angle_coeff 5 fourier 114.246973        0.343737        0.374972        0.281246
angle_coeff 6 fourier 32.417871        0.343737        0.374972        0.281246
angle_coeff 7 fourier 90.420412        0.343737        0.374972        0.281246
angle_coeff 8 fourier 75.498766        0.343737        0.374972        0.281246
angle_coeff 9 cosine/periodic 88.853997              -1               3

# Negative deformation

variable delta equal -${up}*${len0}
variable delta equal -0.02*${len0}
variable delta equal -0.02*12.6505308218205
variable deltaxy equal -${up}*xy
variable deltaxy equal -0.02*xy
variable deltaxz equal -${up}*xz
variable deltaxz equal -0.02*xz
variable deltayz equal -${up}*yz
variable deltayz equal -0.02*yz
if "${dir} == 1" then    "change_box all x delta 0 ${delta} xy delta ${deltaxy} xz delta ${deltaxz} remap units box"
if "${dir} == 2" then    "change_box all y delta 0 ${delta} yz delta ${deltayz} remap units box"
change_box all y delta 0 ${delta} yz delta ${deltayz} remap units box
change_box all y delta 0 -0.25301061643641 yz delta ${deltayz} remap units box
change_box all y delta 0 -0.25301061643641 yz delta -0.00884401759685427 remap units box
Changing box ...
WARNING: Triclinic box skew is large. LAMMPS will run inefficiently. (src/domain.cpp:221)
  triclinic box = (-0.14150848 -0.11986291 -0.20592074) to (15.765368 12.277657 16.281373) with tilt (-8.5416134 1.2256099 0.44220088)
WARNING: Triclinic box skew is large. LAMMPS will run inefficiently. (src/domain.cpp:221)
  triclinic box = (-0.14150848 -0.11986291 -0.20592074) to (15.765368 12.277657 16.281373) with tilt (-8.5416134 1.2256099 0.43335686)
if "${dir} == 3" then    "change_box all z delta 0 ${delta} remap units box"
if "${dir} == 4" then    "change_box all yz delta ${delta} remap units box"
if "${dir} == 5" then    "change_box all xz delta ${delta} remap units box"
if "${dir} == 6" then    "change_box all xy delta ${delta} remap units box"

# Relax atoms positions

minimize ${etol} ${ftol} ${maxiter} ${maxeval}
minimize 0 ${ftol} ${maxiter} ${maxeval}
minimize 0 1e-10 ${maxiter} ${maxeval}
minimize 0 1e-10 100000 ${maxeval}
minimize 0 1e-10 100000 100000
Generated 6 of 6 mixed pair_coeff terms from arithmetic mixing rule
Neighbor list info ...
  update: every = 1 steps, delay = 0 steps, check = yes
  max neighbors/atom: 2000, page size: 100000
  master list distance cutoff = 7
  ghost atom cutoff = 7
  binsize = 3.5, bins = 8 4 5
  1 neighbor lists, perpetual/occasional/extra = 1 0 0
  (1) pair lj/cut, perpetual
      attributes: half, newton on
      pair build: half/bin/newton/tri
      stencil: half/bin/3d/tri
      bin: standard
WARNING: Inconsistent image flags
For more information see https://docs.lammps.org/err0027 (src/domain.cpp:1052)
WARNING: Bond/angle/dihedral extent > half of periodic box length (src/domain.cpp:1174)
Per MPI rank memory allocation (min/avg/max) = 17.49 | 17.49 | 17.49 Mbytes
   Step          Temp          E_pair         E_mol          TotEng         Press     
    250437   268.28922     -337.62984      302.14452      182.83802      25890.387    
    250471   268.28922     -361.85686      241.27964      97.746116      4500.7965    
WARNING: Bond/angle/dihedral extent > half of periodic box length (src/domain.cpp:1174)
Loop time of 0.0158519 on 1 procs for 34 steps with 274 atoms

100.0% CPU use with 1 MPI tasks x 1 OpenMP threads

Minimization stats:
  Stopping criterion = linesearch alpha is zero
  Energy initial, next-to-last, final = 
     -35.4853168848582   -120.57722514654   -120.57722514654
  Force two-norm initial, final = 175.60617 18.73174
  Force max component initial, final = 20.34014 2.6135856
  Final line search alpha, max atom move = 1.9002077e-11 4.9663555e-11
  Iterations, force evaluations = 34 125

MPI task timing breakdown:
Section |  min time  |  avg time  |  max time  |%varavg| %total
---------------------------------------------------------------
Pair    | 0.011546   | 0.011546   | 0.011546   |   0.0 | 72.84
Bond    | 0.0034855  | 0.0034855  | 0.0034855  |   0.0 | 21.99
Neigh   | 0          | 0          | 0          |   0.0 |  0.00
Comm    | 0.00047814 | 0.00047814 | 0.00047814 |   0.0 |  3.02
Output  | 0          | 0          | 0          |   0.0 |  0.00
Modify  | 0          | 0          | 0          |   0.0 |  0.00
Other   |            | 0.0003425  |            |       |  2.16

Nlocal:            274 ave         274 max         274 min
Histogram: 1 0 0 0 0 0 0 0 0 0
Nghost:           1986 ave        1986 max        1986 min
Histogram: 1 0 0 0 0 0 0 0 0 0
Neighs:          15608 ave       15608 max       15608 min
Histogram: 1 0 0 0 0 0 0 0 0 0

Total # of neighbors = 15608
Ave neighs/atom = 56.963504
Ave special neighs/atom = 6.2116788
Neighbor list builds = 0
Dangerous builds = 0

# Obtain new stress tensor

variable tmp equal pxx
variable pxx1 equal ${tmp}
variable pxx1 equal 2331.50707954133
variable tmp equal pyy
variable pyy1 equal ${tmp}
variable pyy1 equal 5109.12266986824
variable tmp equal pzz
variable pzz1 equal ${tmp}
variable pzz1 equal 6061.75969039014
variable tmp equal pxy
variable pxy1 equal ${tmp}
variable pxy1 equal 6252.82649023591
variable tmp equal pxz
variable pxz1 equal ${tmp}
variable pxz1 equal -3212.75232131688
variable tmp equal pyz
variable pyz1 equal ${tmp}
variable pyz1 equal 2161.9797346822

# Compute elastic constant from pressure tensor

variable C1neg equal ${d1}
variable C1neg equal -4.8181414477828
variable C2neg equal ${d2}
variable C2neg equal 9.597149026343
variable C3neg equal ${d3}
variable C3neg equal 13.9649264000873
variable C4neg equal ${d4}
variable C4neg equal -3.8877588787058
variable C5neg equal ${d5}
variable C5neg equal -5.92078515052265
variable C6neg equal ${d6}
variable C6neg equal 19.5600213201789

# Reset box and simulation parameters

clear
OMP_NUM_THREADS environment is not set. Defaulting to 1 thread.
  using 1 OpenMP thread(s) per MPI task
box tilt large

The 'box' command has been removed and will be ignored

read_restart restart_333-EXP-11-vasp.equil
Reading restart file ...
  restart file = 10 Sep 2025, LAMMPS = 10 Sep 2025
  restoring atom style full from restart
  triclinic box = (-0.14150848 -0.11986291 -0.20592074) to (15.765368 12.530668 16.281373) with tilt (-8.5416134 1.2256099 0.44220088)
WARNING: Triclinic box skew is large. LAMMPS will run inefficiently. (src/domain.cpp:221)
  1 by 1 by 1 MPI processor grid
  restoring pair style lj/cut from restart
  restoring bond style harmonic from restart
  restoring angle style hybrid from restart
  restoring dihedral style harmonic from restart
  274 atoms
  294 bonds
  557 angles
  696 dihedrals
Finding 1-2 1-3 1-4 neighbors ...
  special bond factors lj:    0        0        1       
  special bond factors coul:  0        0        1       
     4 = max # of 1-2 neighbors
     8 = max # of 1-3 neighbors
    12 = max # of special neighbors
  special bonds CPU = 0.000 seconds
  read_restart CPU = 0.001 seconds
include ./input/angles_333-EXP-11-vasp.mod
angle_style hybrid fourier cosine/periodic
angle_coeff 1 fourier 157.882480        0.343737        0.374972        0.281246
angle_coeff 2 fourier 221.735285        0.343737        0.374972        0.281246
angle_coeff 3 fourier 83.380072        0.343737        0.374972        0.281246
angle_coeff 4 fourier 58.020602        0.343737        0.374972        0.281246
angle_coeff 5 fourier 114.246973        0.343737        0.374972        0.281246
angle_coeff 6 fourier 32.417871        0.343737        0.374972        0.281246
angle_coeff 7 fourier 90.420412        0.343737        0.374972        0.281246
angle_coeff 8 fourier 75.498766        0.343737        0.374972        0.281246
angle_coeff 9 cosine/periodic 88.853997              -1               3

# Positive deformation

variable delta equal ${up}*${len0}
variable delta equal 0.02*${len0}
variable delta equal 0.02*12.6505308218205
variable deltaxy equal ${up}*xy
variable deltaxy equal 0.02*xy
variable deltaxz equal ${up}*xz
variable deltaxz equal 0.02*xz
variable deltayz equal ${up}*yz
variable deltayz equal 0.02*yz
if "${dir} == 1" then    "change_box all x delta 0 ${delta} xy delta ${deltaxy} xz delta ${deltaxz} remap units box"
if "${dir} == 2" then    "change_box all y delta 0 ${delta} yz delta ${deltayz} remap units box"
change_box all y delta 0 ${delta} yz delta ${deltayz} remap units box
change_box all y delta 0 0.25301061643641 yz delta ${deltayz} remap units box
change_box all y delta 0 0.25301061643641 yz delta 0.00884401759685427 remap units box
Changing box ...
WARNING: Triclinic box skew is large. LAMMPS will run inefficiently. (src/domain.cpp:221)
  triclinic box = (-0.14150848 -0.11986291 -0.20592074) to (15.765368 12.783679 16.281373) with tilt (-8.5416134 1.2256099 0.44220088)
WARNING: Triclinic box skew is large. LAMMPS will run inefficiently. (src/domain.cpp:221)
  triclinic box = (-0.14150848 -0.11986291 -0.20592074) to (15.765368 12.783679 16.281373) with tilt (-8.5416134 1.2256099 0.4510449)
if "${dir} == 3" then    "change_box all z delta 0 ${delta} remap units box"
if "${dir} == 4" then    "change_box all yz delta ${delta} remap units box"
if "${dir} == 5" then    "change_box all xz delta ${delta} remap units box"
if "${dir} == 6" then    "change_box all xy delta ${delta} remap units box"

# Relax atoms positions

minimize ${etol} ${ftol} ${maxiter} ${maxeval}
minimize 0 ${ftol} ${maxiter} ${maxeval}
minimize 0 1e-10 ${maxiter} ${maxeval}
minimize 0 1e-10 100000 ${maxeval}
minimize 0 1e-10 100000 100000
Generated 6 of 6 mixed pair_coeff terms from arithmetic mixing rule
Neighbor list info ...
  update: every = 1 steps, delay = 0 steps, check = yes
  max neighbors/atom: 2000, page size: 100000
  master list distance cutoff = 7
  ghost atom cutoff = 7
  binsize = 3.5, bins = 8 4 5
  1 neighbor lists, perpetual/occasional/extra = 1 0 0
  (1) pair lj/cut, perpetual
      attributes: half, newton on
      pair build: half/bin/newton/tri
      stencil: half/bin/3d/tri
      bin: standard
WARNING: Inconsistent image flags
For more information see https://docs.lammps.org/err0027 (src/domain.cpp:1052)
Per MPI rank memory allocation (min/avg/max) = 17.49 | 17.49 | 17.49 Mbytes
   Step          Temp          E_pair         E_mol          TotEng         Press     
    250437   268.28922     -353.15439      316.28757      181.45652     -18737.397    
    250468   268.28922     -360.65434      251.32868      108.99769     -3748.2058    
Loop time of 0.0147526 on 1 procs for 31 steps with 274 atoms

100.0% CPU use with 1 MPI tasks x 1 OpenMP threads

Minimization stats:
  Stopping criterion = linesearch alpha is zero
  Energy initial, next-to-last, final = 
     -36.8668193499833  -109.325655472431  -109.325655472431
  Force two-norm initial, final = 168.68761 18.526835
  Force max component initial, final = 20.179895 3.5516569
  Final line search alpha, max atom move = 2.0264885e-11 7.1973918e-11
  Iterations, force evaluations = 31 119

MPI task timing breakdown:
Section |  min time  |  avg time  |  max time  |%varavg| %total
---------------------------------------------------------------
Pair    | 0.010544   | 0.010544   | 0.010544   |   0.0 | 71.47
Bond    | 0.0034498  | 0.0034498  | 0.0034498  |   0.0 | 23.38
Neigh   | 0          | 0          | 0          |   0.0 |  0.00
Comm    | 0.00045029 | 0.00045029 | 0.00045029 |   0.0 |  3.05
Output  | 0          | 0          | 0          |   0.0 |  0.00
Modify  | 0          | 0          | 0          |   0.0 |  0.00
Other   |            | 0.0003082  |            |       |  2.09

Nlocal:            274 ave         274 max         274 min
Histogram: 1 0 0 0 0 0 0 0 0 0
Nghost:           1928 ave        1928 max        1928 min
Histogram: 1 0 0 0 0 0 0 0 0 0
Neighs:          14968 ave       14968 max       14968 min
Histogram: 1 0 0 0 0 0 0 0 0 0

Total # of neighbors = 14968
Ave neighs/atom = 54.627737
Ave special neighs/atom = 6.2116788
Neighbor list builds = 0
Dangerous builds = 0

# Obtain new stress tensor

variable tmp equal pe
variable e1 equal ${tmp}
variable e1 equal -109.325655472431
variable tmp equal press
variable p1 equal ${tmp}
variable p1 equal -3748.20583963495
variable tmp equal pxx
variable pxx1 equal ${tmp}
variable pxx1 equal -2401.17354028193
variable tmp equal pyy
variable pyy1 equal ${tmp}
variable pyy1 equal -8162.5789422347
variable tmp equal pzz
variable pzz1 equal ${tmp}
variable pzz1 equal -680.865036388213
variable tmp equal pxy
variable pxy1 equal ${tmp}
variable pxy1 equal 3633.85861603506
variable tmp equal pxz
variable pxz1 equal ${tmp}
variable pxz1 equal -3342.12937031533
variable tmp equal pyz
variable pyz1 equal ${tmp}
variable pyz1 equal 940.532166042142

# Compute elastic constant from pressure tensor

variable C1pos equal ${d1}
variable C1pos equal 28.4815445468991
variable C2pos equal ${d2}
variable C2pos equal 56.7613590341717
variable C3pos equal ${d3}
variable C3pos equal 19.7481972338045
variable C4pos equal ${d4}
variable C4pos equal 9.99499672190609
variable C5pos equal ${d5}
variable C5pos equal 6.5676703955149
variable C6pos equal ${d6}
variable C6pos equal -6.46518194917465

# Combine positive and negative

variable C1${dir} equal 0.5*(${C1neg}+${C1pos})
variable C12 equal 0.5*(${C1neg}+${C1pos})
variable C12 equal 0.5*(-4.8181414477828+${C1pos})
variable C12 equal 0.5*(-4.8181414477828+28.4815445468991)
variable C2${dir} equal 0.5*(${C2neg}+${C2pos})
variable C22 equal 0.5*(${C2neg}+${C2pos})
variable C22 equal 0.5*(9.597149026343+${C2pos})
variable C22 equal 0.5*(9.597149026343+56.7613590341717)
variable C3${dir} equal 0.5*(${C3neg}+${C3pos})
variable C32 equal 0.5*(${C3neg}+${C3pos})
variable C32 equal 0.5*(13.9649264000873+${C3pos})
variable C32 equal 0.5*(13.9649264000873+19.7481972338045)
variable C4${dir} equal 0.5*(${C4neg}+${C4pos})
variable C42 equal 0.5*(${C4neg}+${C4pos})
variable C42 equal 0.5*(-3.8877588787058+${C4pos})
variable C42 equal 0.5*(-3.8877588787058+9.99499672190609)
variable C5${dir} equal 0.5*(${C5neg}+${C5pos})
variable C52 equal 0.5*(${C5neg}+${C5pos})
variable C52 equal 0.5*(-5.92078515052265+${C5pos})
variable C52 equal 0.5*(-5.92078515052265+6.5676703955149)
variable C6${dir} equal 0.5*(${C6neg}+${C6pos})
variable C62 equal 0.5*(${C6neg}+${C6pos})
variable C62 equal 0.5*(19.5600213201789+${C6pos})
variable C62 equal 0.5*(19.5600213201789+-6.46518194917465)

# Delete dir to make sure it is not reused

variable dir delete

# uzz Perturbation

variable dir equal 3
include ./input/displace_333-EXP-11-vasp.mod
if "${dir} == 1" then    "variable len0 equal ${lx0}"
if "${dir} == 2" then    "variable len0 equal ${ly0}"
if "${dir} == 3" then    "variable len0 equal ${lz0}"
variable len0 equal ${lz0}
variable len0 equal 16.4872934751279
if "${dir} == 4" then    "variable len0 equal ${lz0}"
if "${dir} == 5" then    "variable len0 equal ${lz0}"
if "${dir} == 6" then    "variable len0 equal ${ly0}"

# Reset box and simulation parameters

clear
OMP_NUM_THREADS environment is not set. Defaulting to 1 thread.
  using 1 OpenMP thread(s) per MPI task
box tilt large

The 'box' command has been removed and will be ignored

read_restart restart_333-EXP-11-vasp.equil
Reading restart file ...
  restart file = 10 Sep 2025, LAMMPS = 10 Sep 2025
  restoring atom style full from restart
  triclinic box = (-0.14150848 -0.11986291 -0.20592074) to (15.765368 12.530668 16.281373) with tilt (-8.5416134 1.2256099 0.44220088)
WARNING: Triclinic box skew is large. LAMMPS will run inefficiently. (src/domain.cpp:221)
  1 by 1 by 1 MPI processor grid
  restoring pair style lj/cut from restart
  restoring bond style harmonic from restart
  restoring angle style hybrid from restart
  restoring dihedral style harmonic from restart
  274 atoms
  294 bonds
  557 angles
  696 dihedrals
Finding 1-2 1-3 1-4 neighbors ...
  special bond factors lj:    0        0        1       
  special bond factors coul:  0        0        1       
     4 = max # of 1-2 neighbors
     8 = max # of 1-3 neighbors
    12 = max # of special neighbors
  special bonds CPU = 0.000 seconds
  read_restart CPU = 0.001 seconds
include ./input/angles_333-EXP-11-vasp.mod
angle_style hybrid fourier cosine/periodic
angle_coeff 1 fourier 157.882480        0.343737        0.374972        0.281246
angle_coeff 2 fourier 221.735285        0.343737        0.374972        0.281246
angle_coeff 3 fourier 83.380072        0.343737        0.374972        0.281246
angle_coeff 4 fourier 58.020602        0.343737        0.374972        0.281246
angle_coeff 5 fourier 114.246973        0.343737        0.374972        0.281246
angle_coeff 6 fourier 32.417871        0.343737        0.374972        0.281246
angle_coeff 7 fourier 90.420412        0.343737        0.374972        0.281246
angle_coeff 8 fourier 75.498766        0.343737        0.374972        0.281246
angle_coeff 9 cosine/periodic 88.853997              -1               3

# Negative deformation

variable delta equal -${up}*${len0}
variable delta equal -0.02*${len0}
variable delta equal -0.02*16.4872934751279
variable deltaxy equal -${up}*xy
variable deltaxy equal -0.02*xy
variable deltaxz equal -${up}*xz
variable deltaxz equal -0.02*xz
variable deltayz equal -${up}*yz
variable deltayz equal -0.02*yz
if "${dir} == 1" then    "change_box all x delta 0 ${delta} xy delta ${deltaxy} xz delta ${deltaxz} remap units box"
if "${dir} == 2" then    "change_box all y delta 0 ${delta} yz delta ${deltayz} remap units box"
if "${dir} == 3" then    "change_box all z delta 0 ${delta} remap units box"
change_box all z delta 0 ${delta} remap units box
change_box all z delta 0 -0.329745869502558 remap units box
Changing box ...
WARNING: Triclinic box skew is large. LAMMPS will run inefficiently. (src/domain.cpp:221)
  triclinic box = (-0.14150848 -0.11986291 -0.20592074) to (15.765368 12.530668 15.951627) with tilt (-8.5416134 1.2256099 0.44220088)
if "${dir} == 4" then    "change_box all yz delta ${delta} remap units box"
if "${dir} == 5" then    "change_box all xz delta ${delta} remap units box"
if "${dir} == 6" then    "change_box all xy delta ${delta} remap units box"

# Relax atoms positions

minimize ${etol} ${ftol} ${maxiter} ${maxeval}
minimize 0 ${ftol} ${maxiter} ${maxeval}
minimize 0 1e-10 ${maxiter} ${maxeval}
minimize 0 1e-10 100000 ${maxeval}
minimize 0 1e-10 100000 100000
Generated 6 of 6 mixed pair_coeff terms from arithmetic mixing rule
Neighbor list info ...
  update: every = 1 steps, delay = 0 steps, check = yes
  max neighbors/atom: 2000, page size: 100000
  master list distance cutoff = 7
  ghost atom cutoff = 7
  binsize = 3.5, bins = 8 4 5
  1 neighbor lists, perpetual/occasional/extra = 1 0 0
  (1) pair lj/cut, perpetual
      attributes: half, newton on
      pair build: half/bin/newton/tri
      stencil: half/bin/3d/tri
      bin: standard
WARNING: Inconsistent image flags
For more information see https://docs.lammps.org/err0027 (src/domain.cpp:1052)
Per MPI rank memory allocation (min/avg/max) = 17.49 | 17.49 | 17.49 Mbytes
   Step          Temp          E_pair         E_mol          TotEng         Press     
    250437   268.28922     -333.38386      299.77411      184.71359      27161.057    
    250474   268.28922     -355.22102      241.52592      104.62824      5608.4339    
Loop time of 0.0160772 on 1 procs for 37 steps with 274 atoms

100.0% CPU use with 1 MPI tasks x 1 OpenMP threads

Minimization stats:
  Stopping criterion = linesearch alpha is zero
  Energy initial, next-to-last, final = 
     -33.6097498296394  -113.695098309573  -113.695098309573
  Force two-norm initial, final = 175.72939 15.715667
  Force max component initial, final = 20.433014 2.2736173
  Final line search alpha, max atom move = 5.0270436e-11 1.1429573e-10
  Iterations, force evaluations = 37 128

MPI task timing breakdown:
Section |  min time  |  avg time  |  max time  |%varavg| %total
---------------------------------------------------------------
Pair    | 0.011684   | 0.011684   | 0.011684   |   0.0 | 72.67
Bond    | 0.0035919  | 0.0035919  | 0.0035919  |   0.0 | 22.34
Neigh   | 0          | 0          | 0          |   0.0 |  0.00
Comm    | 0.00047767 | 0.00047767 | 0.00047767 |   0.0 |  2.97
Output  | 0          | 0          | 0          |   0.0 |  0.00
Modify  | 0          | 0          | 0          |   0.0 |  0.00
Other   |            | 0.0003238  |            |       |  2.01

Nlocal:            274 ave         274 max         274 min
Histogram: 1 0 0 0 0 0 0 0 0 0
Nghost:           1966 ave        1966 max        1966 min
Histogram: 1 0 0 0 0 0 0 0 0 0
Neighs:          15596 ave       15596 max       15596 min
Histogram: 1 0 0 0 0 0 0 0 0 0

Total # of neighbors = 15596
Ave neighs/atom = 56.919708
Ave special neighs/atom = 6.2116788
Neighbor list builds = 0
Dangerous builds = 0

# Obtain new stress tensor

variable tmp equal pxx
variable pxx1 equal ${tmp}
variable pxx1 equal 2544.38259140856
variable tmp equal pyy
variable pyy1 equal ${tmp}
variable pyy1 equal 1940.79187411547
variable tmp equal pzz
variable pzz1 equal ${tmp}
variable pzz1 equal 12340.1271908669
variable tmp equal pxy
variable pxy1 equal ${tmp}
variable pxy1 equal 4465.15615898975
variable tmp equal pxz
variable pxz1 equal ${tmp}
variable pxz1 equal -3998.24496050631
variable tmp equal pyz
variable pyz1 equal ${tmp}
variable pyz1 equal 2125.8146158275

# Compute elastic constant from pressure tensor

variable C1neg equal ${d1}
variable C1neg equal -3.75376388844665
variable C2neg equal ${d2}
variable C2neg equal -6.24450495242085
variable C3neg equal ${d3}
variable C3neg equal 45.356763902471
variable C4neg equal ${d4}
variable C4neg equal -4.0685844729793
variable C5neg equal ${d5}
variable C5neg equal -9.8482483464698
variable C6neg equal ${d6}
variable C6neg equal 10.6216696639481

# Reset box and simulation parameters

clear
OMP_NUM_THREADS environment is not set. Defaulting to 1 thread.
  using 1 OpenMP thread(s) per MPI task
box tilt large

The 'box' command has been removed and will be ignored

read_restart restart_333-EXP-11-vasp.equil
Reading restart file ...
  restart file = 10 Sep 2025, LAMMPS = 10 Sep 2025
  restoring atom style full from restart
  triclinic box = (-0.14150848 -0.11986291 -0.20592074) to (15.765368 12.530668 16.281373) with tilt (-8.5416134 1.2256099 0.44220088)
WARNING: Triclinic box skew is large. LAMMPS will run inefficiently. (src/domain.cpp:221)
  1 by 1 by 1 MPI processor grid
  restoring pair style lj/cut from restart
  restoring bond style harmonic from restart
  restoring angle style hybrid from restart
  restoring dihedral style harmonic from restart
  274 atoms
  294 bonds
  557 angles
  696 dihedrals
Finding 1-2 1-3 1-4 neighbors ...
  special bond factors lj:    0        0        1       
  special bond factors coul:  0        0        1       
     4 = max # of 1-2 neighbors
     8 = max # of 1-3 neighbors
    12 = max # of special neighbors
  special bonds CPU = 0.000 seconds
  read_restart CPU = 0.001 seconds
include ./input/angles_333-EXP-11-vasp.mod
angle_style hybrid fourier cosine/periodic
angle_coeff 1 fourier 157.882480        0.343737        0.374972        0.281246
angle_coeff 2 fourier 221.735285        0.343737        0.374972        0.281246
angle_coeff 3 fourier 83.380072        0.343737        0.374972        0.281246
angle_coeff 4 fourier 58.020602        0.343737        0.374972        0.281246
angle_coeff 5 fourier 114.246973        0.343737        0.374972        0.281246
angle_coeff 6 fourier 32.417871        0.343737        0.374972        0.281246
angle_coeff 7 fourier 90.420412        0.343737        0.374972        0.281246
angle_coeff 8 fourier 75.498766        0.343737        0.374972        0.281246
angle_coeff 9 cosine/periodic 88.853997              -1               3

# Positive deformation

variable delta equal ${up}*${len0}
variable delta equal 0.02*${len0}
variable delta equal 0.02*16.4872934751279
variable deltaxy equal ${up}*xy
variable deltaxy equal 0.02*xy
variable deltaxz equal ${up}*xz
variable deltaxz equal 0.02*xz
variable deltayz equal ${up}*yz
variable deltayz equal 0.02*yz
if "${dir} == 1" then    "change_box all x delta 0 ${delta} xy delta ${deltaxy} xz delta ${deltaxz} remap units box"
if "${dir} == 2" then    "change_box all y delta 0 ${delta} yz delta ${deltayz} remap units box"
if "${dir} == 3" then    "change_box all z delta 0 ${delta} remap units box"
change_box all z delta 0 ${delta} remap units box
change_box all z delta 0 0.329745869502558 remap units box
Changing box ...
WARNING: Triclinic box skew is large. LAMMPS will run inefficiently. (src/domain.cpp:221)
  triclinic box = (-0.14150848 -0.11986291 -0.20592074) to (15.765368 12.530668 16.611119) with tilt (-8.5416134 1.2256099 0.44220088)
if "${dir} == 4" then    "change_box all yz delta ${delta} remap units box"
if "${dir} == 5" then    "change_box all xz delta ${delta} remap units box"
if "${dir} == 6" then    "change_box all xy delta ${delta} remap units box"

# Relax atoms positions

minimize ${etol} ${ftol} ${maxiter} ${maxeval}
minimize 0 ${ftol} ${maxiter} ${maxeval}
minimize 0 1e-10 ${maxiter} ${maxeval}
minimize 0 1e-10 100000 ${maxeval}
minimize 0 1e-10 100000 100000
Generated 6 of 6 mixed pair_coeff terms from arithmetic mixing rule
Neighbor list info ...
  update: every = 1 steps, delay = 0 steps, check = yes
  max neighbors/atom: 2000, page size: 100000
  master list distance cutoff = 7
  ghost atom cutoff = 7
  binsize = 3.5, bins = 8 4 5
  1 neighbor lists, perpetual/occasional/extra = 1 0 0
  (1) pair lj/cut, perpetual
      attributes: half, newton on
      pair build: half/bin/newton/tri
      stencil: half/bin/3d/tri
      bin: standard
WARNING: Inconsistent image flags
For more information see https://docs.lammps.org/err0027 (src/domain.cpp:1052)
Per MPI rank memory allocation (min/avg/max) = 17.49 | 17.49 | 17.49 Mbytes
   Step          Temp          E_pair         E_mol          TotEng         Press     
    250437   268.28922     -356.14227      319.70548      181.88655     -19895.661    
    250471   268.28922     -365.66039      251.71374      104.37669     -4584.8411    
Loop time of 0.015554 on 1 procs for 34 steps with 274 atoms

100.0% CPU use with 1 MPI tasks x 1 OpenMP threads

Minimization stats:
  Stopping criterion = linesearch alpha is zero
  Energy initial, next-to-last, final = 
     -36.4367904753788  -113.946656089712  -113.946656089712
  Force two-norm initial, final = 174.39334 17.288495
  Force max component initial, final = 23.826687 2.6026335
  Final line search alpha, max atom move = 2.5859392e-11 6.730252e-11
  Iterations, force evaluations = 34 124

MPI task timing breakdown:
Section |  min time  |  avg time  |  max time  |%varavg| %total
---------------------------------------------------------------
Pair    | 0.011131   | 0.011131   | 0.011131   |   0.0 | 71.56
Bond    | 0.0035954  | 0.0035954  | 0.0035954  |   0.0 | 23.12
Neigh   | 0          | 0          | 0          |   0.0 |  0.00
Comm    | 0.00049245 | 0.00049245 | 0.00049245 |   0.0 |  3.17
Output  | 0          | 0          | 0          |   0.0 |  0.00
Modify  | 0          | 0          | 0          |   0.0 |  0.00
Other   |            | 0.000335   |            |       |  2.15

Nlocal:            274 ave         274 max         274 min
Histogram: 1 0 0 0 0 0 0 0 0 0
Nghost:           1922 ave        1922 max        1922 min
Histogram: 1 0 0 0 0 0 0 0 0 0
Neighs:          14943 ave       14943 max       14943 min
Histogram: 1 0 0 0 0 0 0 0 0 0

Total # of neighbors = 14943
Ave neighs/atom = 54.536496
Ave special neighs/atom = 6.2116788
Neighbor list builds = 0
Dangerous builds = 0

# Obtain new stress tensor

variable tmp equal pe
variable e1 equal ${tmp}
variable e1 equal -113.946656089712
variable tmp equal press
variable p1 equal ${tmp}
variable p1 equal -4584.8411058103
variable tmp equal pxx
variable pxx1 equal ${tmp}
variable pxx1 equal -2605.74486179866
variable tmp equal pyy
variable pyy1 equal ${tmp}
variable pyy1 equal -4855.01563415662
variable tmp equal pzz
variable pzz1 equal ${tmp}
variable pzz1 equal -6293.76282147561
variable tmp equal pxy
variable pxy1 equal ${tmp}
variable pxy1 equal 5352.70945231169
variable tmp equal pxz
variable pxz1 equal ${tmp}
variable pxz1 equal -2595.53736202678
variable tmp equal pyz
variable pyz1 equal ${tmp}
variable pyz1 equal 1122.12624250615

# Compute elastic constant from pressure tensor

variable C1pos equal ${d1}
variable C1pos equal 29.5044011544827
variable C2pos equal ${d2}
variable C2pos equal 40.2235424937813
variable C3pos equal ${d3}
variable C3pos equal 47.8126861592415
variable C4pos equal ${d4}
variable C4pos equal 9.08702633958605
variable C5pos equal ${d5}
variable C5pos equal 2.83471035407215
variable C6pos equal ${d6}
variable C6pos equal -15.0594361305578

# Combine positive and negative

variable C1${dir} equal 0.5*(${C1neg}+${C1pos})
variable C13 equal 0.5*(${C1neg}+${C1pos})
variable C13 equal 0.5*(-3.75376388844665+${C1pos})
variable C13 equal 0.5*(-3.75376388844665+29.5044011544827)
variable C2${dir} equal 0.5*(${C2neg}+${C2pos})
variable C23 equal 0.5*(${C2neg}+${C2pos})
variable C23 equal 0.5*(-6.24450495242085+${C2pos})
variable C23 equal 0.5*(-6.24450495242085+40.2235424937813)
variable C3${dir} equal 0.5*(${C3neg}+${C3pos})
variable C33 equal 0.5*(${C3neg}+${C3pos})
variable C33 equal 0.5*(45.356763902471+${C3pos})
variable C33 equal 0.5*(45.356763902471+47.8126861592415)
variable C4${dir} equal 0.5*(${C4neg}+${C4pos})
variable C43 equal 0.5*(${C4neg}+${C4pos})
variable C43 equal 0.5*(-4.0685844729793+${C4pos})
variable C43 equal 0.5*(-4.0685844729793+9.08702633958605)
variable C5${dir} equal 0.5*(${C5neg}+${C5pos})
variable C53 equal 0.5*(${C5neg}+${C5pos})
variable C53 equal 0.5*(-9.8482483464698+${C5pos})
variable C53 equal 0.5*(-9.8482483464698+2.83471035407215)
variable C6${dir} equal 0.5*(${C6neg}+${C6pos})
variable C63 equal 0.5*(${C6neg}+${C6pos})
variable C63 equal 0.5*(10.6216696639481+${C6pos})
variable C63 equal 0.5*(10.6216696639481+-15.0594361305578)

# Delete dir to make sure it is not reused

variable dir delete

# uyz Perturbation

variable dir equal 4
include ./input/displace_333-EXP-11-vasp.mod
if "${dir} == 1" then    "variable len0 equal ${lx0}"
if "${dir} == 2" then    "variable len0 equal ${ly0}"
if "${dir} == 3" then    "variable len0 equal ${lz0}"
if "${dir} == 4" then    "variable len0 equal ${lz0}"
variable len0 equal ${lz0}
variable len0 equal 16.4872934751279
if "${dir} == 5" then    "variable len0 equal ${lz0}"
if "${dir} == 6" then    "variable len0 equal ${ly0}"

# Reset box and simulation parameters

clear
OMP_NUM_THREADS environment is not set. Defaulting to 1 thread.
  using 1 OpenMP thread(s) per MPI task
box tilt large

The 'box' command has been removed and will be ignored

read_restart restart_333-EXP-11-vasp.equil
Reading restart file ...
  restart file = 10 Sep 2025, LAMMPS = 10 Sep 2025
  restoring atom style full from restart
  triclinic box = (-0.14150848 -0.11986291 -0.20592074) to (15.765368 12.530668 16.281373) with tilt (-8.5416134 1.2256099 0.44220088)
WARNING: Triclinic box skew is large. LAMMPS will run inefficiently. (src/domain.cpp:221)
  1 by 1 by 1 MPI processor grid
  restoring pair style lj/cut from restart
  restoring bond style harmonic from restart
  restoring angle style hybrid from restart
  restoring dihedral style harmonic from restart
  274 atoms
  294 bonds
  557 angles
  696 dihedrals
Finding 1-2 1-3 1-4 neighbors ...
  special bond factors lj:    0        0        1       
  special bond factors coul:  0        0        1       
     4 = max # of 1-2 neighbors
     8 = max # of 1-3 neighbors
    12 = max # of special neighbors
  special bonds CPU = 0.000 seconds
  read_restart CPU = 0.001 seconds
include ./input/angles_333-EXP-11-vasp.mod
angle_style hybrid fourier cosine/periodic
angle_coeff 1 fourier 157.882480        0.343737        0.374972        0.281246
angle_coeff 2 fourier 221.735285        0.343737        0.374972        0.281246
angle_coeff 3 fourier 83.380072        0.343737        0.374972        0.281246
angle_coeff 4 fourier 58.020602        0.343737        0.374972        0.281246
angle_coeff 5 fourier 114.246973        0.343737        0.374972        0.281246
angle_coeff 6 fourier 32.417871        0.343737        0.374972        0.281246
angle_coeff 7 fourier 90.420412        0.343737        0.374972        0.281246
angle_coeff 8 fourier 75.498766        0.343737        0.374972        0.281246
angle_coeff 9 cosine/periodic 88.853997              -1               3

# Negative deformation

variable delta equal -${up}*${len0}
variable delta equal -0.02*${len0}
variable delta equal -0.02*16.4872934751279
variable deltaxy equal -${up}*xy
variable deltaxy equal -0.02*xy
variable deltaxz equal -${up}*xz
variable deltaxz equal -0.02*xz
variable deltayz equal -${up}*yz
variable deltayz equal -0.02*yz
if "${dir} == 1" then    "change_box all x delta 0 ${delta} xy delta ${deltaxy} xz delta ${deltaxz} remap units box"
if "${dir} == 2" then    "change_box all y delta 0 ${delta} yz delta ${deltayz} remap units box"
if "${dir} == 3" then    "change_box all z delta 0 ${delta} remap units box"
if "${dir} == 4" then    "change_box all yz delta ${delta} remap units box"
change_box all yz delta ${delta} remap units box
change_box all yz delta -0.329745869502558 remap units box
Changing box ...
WARNING: Triclinic box skew is large. LAMMPS will run inefficiently. (src/domain.cpp:221)
  triclinic box = (-0.14150848 -0.11986291 -0.20592074) to (15.765368 12.530668 16.281373) with tilt (-8.5416134 1.2256099 0.11245501)
if "${dir} == 5" then    "change_box all xz delta ${delta} remap units box"
if "${dir} == 6" then    "change_box all xy delta ${delta} remap units box"

# Relax atoms positions

minimize ${etol} ${ftol} ${maxiter} ${maxeval}
minimize 0 ${ftol} ${maxiter} ${maxeval}
minimize 0 1e-10 ${maxiter} ${maxeval}
minimize 0 1e-10 100000 ${maxeval}
minimize 0 1e-10 100000 100000
Generated 6 of 6 mixed pair_coeff terms from arithmetic mixing rule
Neighbor list info ...
  update: every = 1 steps, delay = 0 steps, check = yes
  max neighbors/atom: 2000, page size: 100000
  master list distance cutoff = 7
  ghost atom cutoff = 7
  binsize = 3.5, bins = 8 4 5
  1 neighbor lists, perpetual/occasional/extra = 1 0 0
  (1) pair lj/cut, perpetual
      attributes: half, newton on
      pair build: half/bin/newton/tri
      stencil: half/bin/3d/tri
      bin: standard
WARNING: Inconsistent image flags
For more information see https://docs.lammps.org/err0027 (src/domain.cpp:1052)
Per MPI rank memory allocation (min/avg/max) = 17.49 | 17.49 | 17.49 Mbytes
   Step          Temp          E_pair         E_mol          TotEng         Press     
    250437   268.28922     -345.22911      300.56066      173.65489      3558.7286    
    250482   268.28922     -360.30556      243.06485      101.08263      603.66292    
Loop time of 0.0182506 on 1 procs for 45 steps with 274 atoms

100.0% CPU use with 1 MPI tasks x 1 OpenMP threads

Minimization stats:
  Stopping criterion = linesearch alpha is zero
  Energy initial, next-to-last, final = 
      -44.668447275772  -117.240712527589  -117.240712527589
  Force two-norm initial, final = 144.18015 10.841629
  Force max component initial, final = 15.796323 1.8014231
  Final line search alpha, max atom move = 6.3284018e-11 1.1400129e-10
  Iterations, force evaluations = 45 145

MPI task timing breakdown:
Section |  min time  |  avg time  |  max time  |%varavg| %total
---------------------------------------------------------------
Pair    | 0.01324    | 0.01324    | 0.01324    |   0.0 | 72.55
Bond    | 0.0041032  | 0.0041032  | 0.0041032  |   0.0 | 22.48
Neigh   | 0          | 0          | 0          |   0.0 |  0.00
Comm    | 0.00052397 | 0.00052397 | 0.00052397 |   0.0 |  2.87
Output  | 0          | 0          | 0          |   0.0 |  0.00
Modify  | 0          | 0          | 0          |   0.0 |  0.00
Other   |            | 0.0003835  |            |       |  2.10

Nlocal:            274 ave         274 max         274 min
Histogram: 1 0 0 0 0 0 0 0 0 0
Nghost:           1954 ave        1954 max        1954 min
Histogram: 1 0 0 0 0 0 0 0 0 0
Neighs:          15250 ave       15250 max       15250 min
Histogram: 1 0 0 0 0 0 0 0 0 0

Total # of neighbors = 15250
Ave neighs/atom = 55.656934
Ave special neighs/atom = 6.2116788
Neighbor list builds = 0
Dangerous builds = 0

# Obtain new stress tensor

variable tmp equal pxx
variable pxx1 equal ${tmp}
variable pxx1 equal 271.556943318054
variable tmp equal pyy
variable pyy1 equal ${tmp}
variable pyy1 equal -1458.84550415006
variable tmp equal pzz
variable pzz1 equal ${tmp}
variable pzz1 equal 2998.27732901884
variable tmp equal pxy
variable pxy1 equal ${tmp}
variable pxy1 equal 4770.28669211261
variable tmp equal pxz
variable pxz1 equal ${tmp}
variable pxz1 equal -3279.83389631373
variable tmp equal pyz
variable pyz1 equal ${tmp}
variable pyz1 equal 4476.15246427338

# Compute elastic constant from pressure tensor

variable C1neg equal ${d1}
variable C1neg equal -15.1178921288992
variable C2neg equal ${d2}
variable C2neg equal -23.2426918437485
variable C3neg equal ${d3}
variable C3neg equal -1.35248540676925
variable C4neg equal ${d4}
variable C4neg equal 7.6831047692501
variable C5neg equal ${d5}
variable C5neg equal -6.2561930255069
variable C6neg equal ${d6}
variable C6neg equal 12.1473223295624

# Reset box and simulation parameters

clear
OMP_NUM_THREADS environment is not set. Defaulting to 1 thread.
  using 1 OpenMP thread(s) per MPI task
box tilt large

The 'box' command has been removed and will be ignored

read_restart restart_333-EXP-11-vasp.equil
Reading restart file ...
  restart file = 10 Sep 2025, LAMMPS = 10 Sep 2025
  restoring atom style full from restart
  triclinic box = (-0.14150848 -0.11986291 -0.20592074) to (15.765368 12.530668 16.281373) with tilt (-8.5416134 1.2256099 0.44220088)
WARNING: Triclinic box skew is large. LAMMPS will run inefficiently. (src/domain.cpp:221)
  1 by 1 by 1 MPI processor grid
  restoring pair style lj/cut from restart
  restoring bond style harmonic from restart
  restoring angle style hybrid from restart
  restoring dihedral style harmonic from restart
  274 atoms
  294 bonds
  557 angles
  696 dihedrals
Finding 1-2 1-3 1-4 neighbors ...
  special bond factors lj:    0        0        1       
  special bond factors coul:  0        0        1       
     4 = max # of 1-2 neighbors
     8 = max # of 1-3 neighbors
    12 = max # of special neighbors
  special bonds CPU = 0.000 seconds
  read_restart CPU = 0.001 seconds
include ./input/angles_333-EXP-11-vasp.mod
angle_style hybrid fourier cosine/periodic
angle_coeff 1 fourier 157.882480        0.343737        0.374972        0.281246
angle_coeff 2 fourier 221.735285        0.343737        0.374972        0.281246
angle_coeff 3 fourier 83.380072        0.343737        0.374972        0.281246
angle_coeff 4 fourier 58.020602        0.343737        0.374972        0.281246
angle_coeff 5 fourier 114.246973        0.343737        0.374972        0.281246
angle_coeff 6 fourier 32.417871        0.343737        0.374972        0.281246
angle_coeff 7 fourier 90.420412        0.343737        0.374972        0.281246
angle_coeff 8 fourier 75.498766        0.343737        0.374972        0.281246
angle_coeff 9 cosine/periodic 88.853997              -1               3

# Positive deformation

variable delta equal ${up}*${len0}
variable delta equal 0.02*${len0}
variable delta equal 0.02*16.4872934751279
variable deltaxy equal ${up}*xy
variable deltaxy equal 0.02*xy
variable deltaxz equal ${up}*xz
variable deltaxz equal 0.02*xz
variable deltayz equal ${up}*yz
variable deltayz equal 0.02*yz
if "${dir} == 1" then    "change_box all x delta 0 ${delta} xy delta ${deltaxy} xz delta ${deltaxz} remap units box"
if "${dir} == 2" then    "change_box all y delta 0 ${delta} yz delta ${deltayz} remap units box"
if "${dir} == 3" then    "change_box all z delta 0 ${delta} remap units box"
if "${dir} == 4" then    "change_box all yz delta ${delta} remap units box"
change_box all yz delta ${delta} remap units box
change_box all yz delta 0.329745869502558 remap units box
Changing box ...
WARNING: Triclinic box skew is large. LAMMPS will run inefficiently. (src/domain.cpp:221)
  triclinic box = (-0.14150848 -0.11986291 -0.20592074) to (15.765368 12.530668 16.281373) with tilt (-8.5416134 1.2256099 0.77194675)
if "${dir} == 5" then    "change_box all xz delta ${delta} remap units box"
if "${dir} == 6" then    "change_box all xy delta ${delta} remap units box"

# Relax atoms positions

minimize ${etol} ${ftol} ${maxiter} ${maxeval}
minimize 0 ${ftol} ${maxiter} ${maxeval}
minimize 0 1e-10 ${maxiter} ${maxeval}
minimize 0 1e-10 100000 ${maxeval}
minimize 0 1e-10 100000 100000
Generated 6 of 6 mixed pair_coeff terms from arithmetic mixing rule
Neighbor list info ...
  update: every = 1 steps, delay = 0 steps, check = yes
  max neighbors/atom: 2000, page size: 100000
  master list distance cutoff = 7
  ghost atom cutoff = 7
  binsize = 3.5, bins = 8 4 5
  1 neighbor lists, perpetual/occasional/extra = 1 0 0
  (1) pair lj/cut, perpetual
      attributes: half, newton on
      pair build: half/bin/newton/tri
      stencil: half/bin/3d/tri
      bin: standard
WARNING: Inconsistent image flags
For more information see https://docs.lammps.org/err0027 (src/domain.cpp:1052)
Per MPI rank memory allocation (min/avg/max) = 17.49 | 17.49 | 17.49 Mbytes
   Step          Temp          E_pair         E_mol          TotEng         Press     
    250437   268.28922     -347.46039      295.93938      166.80233      2570.7483    
    250473   268.28922     -363.62456      245.15747      99.85625      -333.44316    
Loop time of 0.0158273 on 1 procs for 36 steps with 274 atoms

95.9% CPU use with 1 MPI tasks x 1 OpenMP threads

Minimization stats:
  Stopping criterion = linesearch alpha is zero
  Energy initial, next-to-last, final = 
     -51.5210135834875   -118.46709130949   -118.46709130949
  Force two-norm initial, final = 142.28766 14.320859
  Force max component initial, final = 15.929207 1.775651
  Final line search alpha, max atom move = 5.8060915e-11 1.0309592e-10
  Iterations, force evaluations = 36 127

MPI task timing breakdown:
Section |  min time  |  avg time  |  max time  |%varavg| %total
---------------------------------------------------------------
Pair    | 0.011423   | 0.011423   | 0.011423   |   0.0 | 72.17
Bond    | 0.0036129  | 0.0036129  | 0.0036129  |   0.0 | 22.83
Neigh   | 0          | 0          | 0          |   0.0 |  0.00
Comm    | 0.00046028 | 0.00046028 | 0.00046028 |   0.0 |  2.91
Output  | 0          | 0          | 0          |   0.0 |  0.00
Modify  | 0          | 0          | 0          |   0.0 |  0.00
Other   |            | 0.0003308  |            |       |  2.09

Nlocal:            274 ave         274 max         274 min
Histogram: 1 0 0 0 0 0 0 0 0 0
Nghost:           1954 ave        1954 max        1954 min
Histogram: 1 0 0 0 0 0 0 0 0 0
Neighs:          15278 ave       15278 max       15278 min
Histogram: 1 0 0 0 0 0 0 0 0 0

Total # of neighbors = 15278
Ave neighs/atom = 55.759124
Ave special neighs/atom = 6.2116788
Neighbor list builds = 0
Dangerous builds = 0

# Obtain new stress tensor

variable tmp equal pe
variable e1 equal ${tmp}
variable e1 equal -118.46709130949
variable tmp equal press
variable p1 equal ${tmp}
variable p1 equal -333.443156821179
variable tmp equal pxx
variable pxx1 equal ${tmp}
variable pxx1 equal -756.932564752172
variable tmp equal pyy
variable pyy1 equal ${tmp}
variable pyy1 equal -2220.42301836222
variable tmp equal pzz
variable pzz1 equal ${tmp}
variable pzz1 equal 1977.02611265086
variable tmp equal pxy
variable pxy1 equal ${tmp}
variable pxy1 equal 5041.13953528273
variable tmp equal pxz
variable pxz1 equal ${tmp}
variable pxz1 equal -3323.83432419791
variable tmp equal pyz
variable pyz1 equal ${tmp}
variable pyz1 equal -1297.4051150574

# Compute elastic constant from pressure tensor

variable C1pos equal ${d1}
variable C1pos equal 20.2603396692503
variable C2pos equal ${d2}
variable C2pos equal 27.0505794148093
variable C3pos equal ${d3}
variable C3pos equal 6.45874148860915
variable C4pos equal ${d4}
variable C4pos equal 21.1846831274038
variable C5pos equal ${d5}
variable C5pos equal 6.4761951649278
variable C6pos equal ${d6}
variable C6pos equal -13.501586545413

# Combine positive and negative

variable C1${dir} equal 0.5*(${C1neg}+${C1pos})
variable C14 equal 0.5*(${C1neg}+${C1pos})
variable C14 equal 0.5*(-15.1178921288992+${C1pos})
variable C14 equal 0.5*(-15.1178921288992+20.2603396692503)
variable C2${dir} equal 0.5*(${C2neg}+${C2pos})
variable C24 equal 0.5*(${C2neg}+${C2pos})
variable C24 equal 0.5*(-23.2426918437485+${C2pos})
variable C24 equal 0.5*(-23.2426918437485+27.0505794148093)
variable C3${dir} equal 0.5*(${C3neg}+${C3pos})
variable C34 equal 0.5*(${C3neg}+${C3pos})
variable C34 equal 0.5*(-1.35248540676925+${C3pos})
variable C34 equal 0.5*(-1.35248540676925+6.45874148860915)
variable C4${dir} equal 0.5*(${C4neg}+${C4pos})
variable C44 equal 0.5*(${C4neg}+${C4pos})
variable C44 equal 0.5*(7.6831047692501+${C4pos})
variable C44 equal 0.5*(7.6831047692501+21.1846831274038)
variable C5${dir} equal 0.5*(${C5neg}+${C5pos})
variable C54 equal 0.5*(${C5neg}+${C5pos})
variable C54 equal 0.5*(-6.2561930255069+${C5pos})
variable C54 equal 0.5*(-6.2561930255069+6.4761951649278)
variable C6${dir} equal 0.5*(${C6neg}+${C6pos})
variable C64 equal 0.5*(${C6neg}+${C6pos})
variable C64 equal 0.5*(12.1473223295624+${C6pos})
variable C64 equal 0.5*(12.1473223295624+-13.501586545413)

# Delete dir to make sure it is not reused

variable dir delete

# uxz Perturbation

variable dir equal 5
include ./input/displace_333-EXP-11-vasp.mod
if "${dir} == 1" then    "variable len0 equal ${lx0}"
if "${dir} == 2" then    "variable len0 equal ${ly0}"
if "${dir} == 3" then    "variable len0 equal ${lz0}"
if "${dir} == 4" then    "variable len0 equal ${lz0}"
if "${dir} == 5" then    "variable len0 equal ${lz0}"
variable len0 equal ${lz0}
variable len0 equal 16.4872934751279
if "${dir} == 6" then    "variable len0 equal ${ly0}"

# Reset box and simulation parameters

clear
OMP_NUM_THREADS environment is not set. Defaulting to 1 thread.
  using 1 OpenMP thread(s) per MPI task
box tilt large

The 'box' command has been removed and will be ignored

read_restart restart_333-EXP-11-vasp.equil
Reading restart file ...
  restart file = 10 Sep 2025, LAMMPS = 10 Sep 2025
  restoring atom style full from restart
  triclinic box = (-0.14150848 -0.11986291 -0.20592074) to (15.765368 12.530668 16.281373) with tilt (-8.5416134 1.2256099 0.44220088)
WARNING: Triclinic box skew is large. LAMMPS will run inefficiently. (src/domain.cpp:221)
  1 by 1 by 1 MPI processor grid
  restoring pair style lj/cut from restart
  restoring bond style harmonic from restart
  restoring angle style hybrid from restart
  restoring dihedral style harmonic from restart
  274 atoms
  294 bonds
  557 angles
  696 dihedrals
Finding 1-2 1-3 1-4 neighbors ...
  special bond factors lj:    0        0        1       
  special bond factors coul:  0        0        1       
     4 = max # of 1-2 neighbors
     8 = max # of 1-3 neighbors
    12 = max # of special neighbors
  special bonds CPU = 0.000 seconds
  read_restart CPU = 0.001 seconds
include ./input/angles_333-EXP-11-vasp.mod
angle_style hybrid fourier cosine/periodic
angle_coeff 1 fourier 157.882480        0.343737        0.374972        0.281246
angle_coeff 2 fourier 221.735285        0.343737        0.374972        0.281246
angle_coeff 3 fourier 83.380072        0.343737        0.374972        0.281246
angle_coeff 4 fourier 58.020602        0.343737        0.374972        0.281246
angle_coeff 5 fourier 114.246973        0.343737        0.374972        0.281246
angle_coeff 6 fourier 32.417871        0.343737        0.374972        0.281246
angle_coeff 7 fourier 90.420412        0.343737        0.374972        0.281246
angle_coeff 8 fourier 75.498766        0.343737        0.374972        0.281246
angle_coeff 9 cosine/periodic 88.853997              -1               3

# Negative deformation

variable delta equal -${up}*${len0}
variable delta equal -0.02*${len0}
variable delta equal -0.02*16.4872934751279
variable deltaxy equal -${up}*xy
variable deltaxy equal -0.02*xy
variable deltaxz equal -${up}*xz
variable deltaxz equal -0.02*xz
variable deltayz equal -${up}*yz
variable deltayz equal -0.02*yz
if "${dir} == 1" then    "change_box all x delta 0 ${delta} xy delta ${deltaxy} xz delta ${deltaxz} remap units box"
if "${dir} == 2" then    "change_box all y delta 0 ${delta} yz delta ${deltayz} remap units box"
if "${dir} == 3" then    "change_box all z delta 0 ${delta} remap units box"
if "${dir} == 4" then    "change_box all yz delta ${delta} remap units box"
if "${dir} == 5" then    "change_box all xz delta ${delta} remap units box"
change_box all xz delta ${delta} remap units box
change_box all xz delta -0.329745869502558 remap units box
Changing box ...
WARNING: Triclinic box skew is large. LAMMPS will run inefficiently. (src/domain.cpp:221)
  triclinic box = (-0.14150848 -0.11986291 -0.20592074) to (15.765368 12.530668 16.281373) with tilt (-8.5416134 0.89586404 0.44220088)
if "${dir} == 6" then    "change_box all xy delta ${delta} remap units box"

# Relax atoms positions

minimize ${etol} ${ftol} ${maxiter} ${maxeval}
minimize 0 ${ftol} ${maxiter} ${maxeval}
minimize 0 1e-10 ${maxiter} ${maxeval}
minimize 0 1e-10 100000 ${maxeval}
minimize 0 1e-10 100000 100000
Generated 6 of 6 mixed pair_coeff terms from arithmetic mixing rule
Neighbor list info ...
  update: every = 1 steps, delay = 0 steps, check = yes
  max neighbors/atom: 2000, page size: 100000
  master list distance cutoff = 7
  ghost atom cutoff = 7
  binsize = 3.5, bins = 8 4 5
  1 neighbor lists, perpetual/occasional/extra = 1 0 0
  (1) pair lj/cut, perpetual
      attributes: half, newton on
      pair build: half/bin/newton/tri
      stencil: half/bin/3d/tri
      bin: standard
WARNING: Inconsistent image flags
For more information see https://docs.lammps.org/err0027 (src/domain.cpp:1052)
Per MPI rank memory allocation (min/avg/max) = 17.49 | 17.49 | 17.49 Mbytes
   Step          Temp          E_pair         E_mol          TotEng         Press     
    250437   268.28922     -345.85866      295.54752      168.0122       2602.7208    
    250472   268.28922     -363.49802      242.91654      97.741862      2.7954279    
Loop time of 0.0161056 on 1 procs for 35 steps with 274 atoms

100.0% CPU use with 1 MPI tasks x 1 OpenMP threads

Minimization stats:
  Stopping criterion = linesearch alpha is zero
  Energy initial, next-to-last, final = 
     -50.3111414189659  -120.581479266274  -120.581479266274
  Force two-norm initial, final = 136.97246 14.956559
  Force max component initial, final = 17.236984 2.4857563
  Final line search alpha, max atom move = 3.1978867e-11 7.949167e-11
  Iterations, force evaluations = 35 126

MPI task timing breakdown:
Section |  min time  |  avg time  |  max time  |%varavg| %total
---------------------------------------------------------------
Pair    | 0.01166    | 0.01166    | 0.01166    |   0.0 | 72.39
Bond    | 0.0035884  | 0.0035884  | 0.0035884  |   0.0 | 22.28
Neigh   | 0          | 0          | 0          |   0.0 |  0.00
Comm    | 0.00052385 | 0.00052385 | 0.00052385 |   0.0 |  3.25
Output  | 0          | 0          | 0          |   0.0 |  0.00
Modify  | 0          | 0          | 0          |   0.0 |  0.00
Other   |            | 0.0003338  |            |       |  2.07

Nlocal:            274 ave         274 max         274 min
Histogram: 1 0 0 0 0 0 0 0 0 0
Nghost:           1954 ave        1954 max        1954 min
Histogram: 1 0 0 0 0 0 0 0 0 0
Neighs:          15263 ave       15263 max       15263 min
Histogram: 1 0 0 0 0 0 0 0 0 0

Total # of neighbors = 15263
Ave neighs/atom = 55.70438
Ave special neighs/atom = 6.2116788
Neighbor list builds = 0
Dangerous builds = 0

# Obtain new stress tensor

variable tmp equal pxx
variable pxx1 equal ${tmp}
variable pxx1 equal 207.715909880128
variable tmp equal pyy
variable pyy1 equal ${tmp}
variable pyy1 equal -1815.17547703814
variable tmp equal pzz
variable pzz1 equal ${tmp}
variable pzz1 equal 1615.84585082194
variable tmp equal pxy
variable pxy1 equal ${tmp}
variable pxy1 equal 5218.51594664087
variable tmp equal pxz
variable pxz1 equal ${tmp}
variable pxz1 equal -330.06354580203
variable tmp equal pyz
variable pyz1 equal ${tmp}
variable pyz1 equal 1846.90393248951

# Compute elastic constant from pressure tensor

variable C1neg equal ${d1}
variable C1neg equal -15.4370972960888
variable C2neg equal ${d2}
variable C2neg equal -25.0243417081889
variable C3neg equal ${d3}
variable C3neg equal -8.26464279775375
variable C4neg equal ${d4}
variable C4neg equal -5.46313788966925
variable C5neg equal ${d5}
variable C5neg equal 8.4926587270516
variable C6neg equal ${d6}
variable C6neg equal 14.3884686022037

# Reset box and simulation parameters

clear
OMP_NUM_THREADS environment is not set. Defaulting to 1 thread.
  using 1 OpenMP thread(s) per MPI task
box tilt large

The 'box' command has been removed and will be ignored

read_restart restart_333-EXP-11-vasp.equil
Reading restart file ...
  restart file = 10 Sep 2025, LAMMPS = 10 Sep 2025
  restoring atom style full from restart
  triclinic box = (-0.14150848 -0.11986291 -0.20592074) to (15.765368 12.530668 16.281373) with tilt (-8.5416134 1.2256099 0.44220088)
WARNING: Triclinic box skew is large. LAMMPS will run inefficiently. (src/domain.cpp:221)
  1 by 1 by 1 MPI processor grid
  restoring pair style lj/cut from restart
  restoring bond style harmonic from restart
  restoring angle style hybrid from restart
  restoring dihedral style harmonic from restart
  274 atoms
  294 bonds
  557 angles
  696 dihedrals
Finding 1-2 1-3 1-4 neighbors ...
  special bond factors lj:    0        0        1       
  special bond factors coul:  0        0        1       
     4 = max # of 1-2 neighbors
     8 = max # of 1-3 neighbors
    12 = max # of special neighbors
  special bonds CPU = 0.000 seconds
  read_restart CPU = 0.001 seconds
include ./input/angles_333-EXP-11-vasp.mod
angle_style hybrid fourier cosine/periodic
angle_coeff 1 fourier 157.882480        0.343737        0.374972        0.281246
angle_coeff 2 fourier 221.735285        0.343737        0.374972        0.281246
angle_coeff 3 fourier 83.380072        0.343737        0.374972        0.281246
angle_coeff 4 fourier 58.020602        0.343737        0.374972        0.281246
angle_coeff 5 fourier 114.246973        0.343737        0.374972        0.281246
angle_coeff 6 fourier 32.417871        0.343737        0.374972        0.281246
angle_coeff 7 fourier 90.420412        0.343737        0.374972        0.281246
angle_coeff 8 fourier 75.498766        0.343737        0.374972        0.281246
angle_coeff 9 cosine/periodic 88.853997              -1               3

# Positive deformation

variable delta equal ${up}*${len0}
variable delta equal 0.02*${len0}
variable delta equal 0.02*16.4872934751279
variable deltaxy equal ${up}*xy
variable deltaxy equal 0.02*xy
variable deltaxz equal ${up}*xz
variable deltaxz equal 0.02*xz
variable deltayz equal ${up}*yz
variable deltayz equal 0.02*yz
if "${dir} == 1" then    "change_box all x delta 0 ${delta} xy delta ${deltaxy} xz delta ${deltaxz} remap units box"
if "${dir} == 2" then    "change_box all y delta 0 ${delta} yz delta ${deltayz} remap units box"
if "${dir} == 3" then    "change_box all z delta 0 ${delta} remap units box"
if "${dir} == 4" then    "change_box all yz delta ${delta} remap units box"
if "${dir} == 5" then    "change_box all xz delta ${delta} remap units box"
change_box all xz delta ${delta} remap units box
change_box all xz delta 0.329745869502558 remap units box
Changing box ...
WARNING: Triclinic box skew is large. LAMMPS will run inefficiently. (src/domain.cpp:221)
  triclinic box = (-0.14150848 -0.11986291 -0.20592074) to (15.765368 12.530668 16.281373) with tilt (-8.5416134 1.5553558 0.44220088)
if "${dir} == 6" then    "change_box all xy delta ${delta} remap units box"

# Relax atoms positions

minimize ${etol} ${ftol} ${maxiter} ${maxeval}
minimize 0 ${ftol} ${maxiter} ${maxeval}
minimize 0 1e-10 ${maxiter} ${maxeval}
minimize 0 1e-10 100000 ${maxeval}
minimize 0 1e-10 100000 100000
Generated 6 of 6 mixed pair_coeff terms from arithmetic mixing rule
Neighbor list info ...
  update: every = 1 steps, delay = 0 steps, check = yes
  max neighbors/atom: 2000, page size: 100000
  master list distance cutoff = 7
  ghost atom cutoff = 7
  binsize = 3.5, bins = 8 4 5
  1 neighbor lists, perpetual/occasional/extra = 1 0 0
  (1) pair lj/cut, perpetual
      attributes: half, newton on
      pair build: half/bin/newton/tri
      stencil: half/bin/3d/tri
      bin: standard
WARNING: Inconsistent image flags
For more information see https://docs.lammps.org/err0027 (src/domain.cpp:1052)
Per MPI rank memory allocation (min/avg/max) = 17.49 | 17.49 | 17.49 Mbytes
   Step          Temp          E_pair         E_mol          TotEng         Press     
    250437   268.28922     -346.6364       300.20683      171.89377      3536.1048    
    250472   268.28922     -360.09754      246.51943      104.74523      204.13178    
Loop time of 0.0174133 on 1 procs for 35 steps with 274 atoms

100.0% CPU use with 1 MPI tasks x 1 OpenMP threads

Minimization stats:
  Stopping criterion = linesearch alpha is zero
  Energy initial, next-to-last, final = 
     -46.4295669112813  -113.578107255892  -113.578107255892
  Force two-norm initial, final = 138.04378 15.265819
  Force max component initial, final = 15.231805 2.0519275
  Final line search alpha, max atom move = 4.9494727e-11 1.0155959e-10
  Iterations, force evaluations = 35 125

MPI task timing breakdown:
Section |  min time  |  avg time  |  max time  |%varavg| %total
---------------------------------------------------------------
Pair    | 0.012624   | 0.012624   | 0.012624   |   0.0 | 72.50
Bond    | 0.0039057  | 0.0039057  | 0.0039057  |   0.0 | 22.43
Neigh   | 0          | 0          | 0          |   0.0 |  0.00
Comm    | 0.00051893 | 0.00051893 | 0.00051893 |   0.0 |  2.98
Output  | 0          | 0          | 0          |   0.0 |  0.00
Modify  | 0          | 0          | 0          |   0.0 |  0.00
Other   |            | 0.0003648  |            |       |  2.09

Nlocal:            274 ave         274 max         274 min
Histogram: 1 0 0 0 0 0 0 0 0 0
Nghost:           1958 ave        1958 max        1958 min
Histogram: 1 0 0 0 0 0 0 0 0 0
Neighs:          15257 ave       15257 max       15257 min
Histogram: 1 0 0 0 0 0 0 0 0 0

Total # of neighbors = 15257
Ave neighs/atom = 55.682482
Ave special neighs/atom = 6.2116788
Neighbor list builds = 0
Dangerous builds = 0

# Obtain new stress tensor

variable tmp equal pe
variable e1 equal ${tmp}
variable e1 equal -113.578107255892
variable tmp equal press
variable p1 equal ${tmp}
variable p1 equal 204.1317757311
variable tmp equal pxx
variable pxx1 equal ${tmp}
variable pxx1 equal -972.35730815417
variable tmp equal pyy
variable pyy1 equal ${tmp}
variable pyy1 equal -1777.39724510502
variable tmp equal pzz
variable pzz1 equal ${tmp}
variable pzz1 equal 3362.14988045249
variable tmp equal pxy
variable pxy1 equal ${tmp}
variable pxy1 equal 4912.3236511696
variable tmp equal pxz
variable pxz1 equal ${tmp}
variable pxz1 equal -6232.46677834415
variable tmp equal pyz
variable pyz1 equal ${tmp}
variable pyz1 equal 1525.47703992337

# Compute elastic constant from pressure tensor

variable C1pos equal ${d1}
variable C1pos equal 21.3374633862603
variable C2pos equal ${d2}
variable C2pos equal 24.8354505485233
variable C3pos equal ${d3}
variable C3pos equal -0.466877350399
variable C4pos equal ${d4}
variable C4pos equal 7.07027235249995
variable C5pos equal ${d5}
variable C5pos equal 21.019357435659
variable C6pos equal ${d6}
variable C6pos equal -12.8575071248474

# Combine positive and negative

variable C1${dir} equal 0.5*(${C1neg}+${C1pos})
variable C15 equal 0.5*(${C1neg}+${C1pos})
variable C15 equal 0.5*(-15.4370972960888+${C1pos})
variable C15 equal 0.5*(-15.4370972960888+21.3374633862603)
variable C2${dir} equal 0.5*(${C2neg}+${C2pos})
variable C25 equal 0.5*(${C2neg}+${C2pos})
variable C25 equal 0.5*(-25.0243417081889+${C2pos})
variable C25 equal 0.5*(-25.0243417081889+24.8354505485233)
variable C3${dir} equal 0.5*(${C3neg}+${C3pos})
variable C35 equal 0.5*(${C3neg}+${C3pos})
variable C35 equal 0.5*(-8.26464279775375+${C3pos})
variable C35 equal 0.5*(-8.26464279775375+-0.466877350399)
variable C4${dir} equal 0.5*(${C4neg}+${C4pos})
variable C45 equal 0.5*(${C4neg}+${C4pos})
variable C45 equal 0.5*(-5.46313788966925+${C4pos})
variable C45 equal 0.5*(-5.46313788966925+7.07027235249995)
variable C5${dir} equal 0.5*(${C5neg}+${C5pos})
variable C55 equal 0.5*(${C5neg}+${C5pos})
variable C55 equal 0.5*(8.4926587270516+${C5pos})
variable C55 equal 0.5*(8.4926587270516+21.019357435659)
variable C6${dir} equal 0.5*(${C6neg}+${C6pos})
variable C65 equal 0.5*(${C6neg}+${C6pos})
variable C65 equal 0.5*(14.3884686022037+${C6pos})
variable C65 equal 0.5*(14.3884686022037+-12.8575071248474)

# Delete dir to make sure it is not reused

variable dir delete

# uxy Perturbation

variable dir equal 6
include ./input/displace_333-EXP-11-vasp.mod
if "${dir} == 1" then    "variable len0 equal ${lx0}"
if "${dir} == 2" then    "variable len0 equal ${ly0}"
if "${dir} == 3" then    "variable len0 equal ${lz0}"
if "${dir} == 4" then    "variable len0 equal ${lz0}"
if "${dir} == 5" then    "variable len0 equal ${lz0}"
if "${dir} == 6" then    "variable len0 equal ${ly0}"
variable len0 equal ${ly0}
variable len0 equal 12.6505308218205

# Reset box and simulation parameters

clear
OMP_NUM_THREADS environment is not set. Defaulting to 1 thread.
  using 1 OpenMP thread(s) per MPI task
box tilt large

The 'box' command has been removed and will be ignored

read_restart restart_333-EXP-11-vasp.equil
Reading restart file ...
  restart file = 10 Sep 2025, LAMMPS = 10 Sep 2025
  restoring atom style full from restart
  triclinic box = (-0.14150848 -0.11986291 -0.20592074) to (15.765368 12.530668 16.281373) with tilt (-8.5416134 1.2256099 0.44220088)
WARNING: Triclinic box skew is large. LAMMPS will run inefficiently. (src/domain.cpp:221)
  1 by 1 by 1 MPI processor grid
  restoring pair style lj/cut from restart
  restoring bond style harmonic from restart
  restoring angle style hybrid from restart
  restoring dihedral style harmonic from restart
  274 atoms
  294 bonds
  557 angles
  696 dihedrals
Finding 1-2 1-3 1-4 neighbors ...
  special bond factors lj:    0        0        1       
  special bond factors coul:  0        0        1       
     4 = max # of 1-2 neighbors
     8 = max # of 1-3 neighbors
    12 = max # of special neighbors
  special bonds CPU = 0.000 seconds
  read_restart CPU = 0.001 seconds
include ./input/angles_333-EXP-11-vasp.mod
angle_style hybrid fourier cosine/periodic
angle_coeff 1 fourier 157.882480        0.343737        0.374972        0.281246
angle_coeff 2 fourier 221.735285        0.343737        0.374972        0.281246
angle_coeff 3 fourier 83.380072        0.343737        0.374972        0.281246
angle_coeff 4 fourier 58.020602        0.343737        0.374972        0.281246
angle_coeff 5 fourier 114.246973        0.343737        0.374972        0.281246
angle_coeff 6 fourier 32.417871        0.343737        0.374972        0.281246
angle_coeff 7 fourier 90.420412        0.343737        0.374972        0.281246
angle_coeff 8 fourier 75.498766        0.343737        0.374972        0.281246
angle_coeff 9 cosine/periodic 88.853997              -1               3

# Negative deformation

variable delta equal -${up}*${len0}
variable delta equal -0.02*${len0}
variable delta equal -0.02*12.6505308218205
variable deltaxy equal -${up}*xy
variable deltaxy equal -0.02*xy
variable deltaxz equal -${up}*xz
variable deltaxz equal -0.02*xz
variable deltayz equal -${up}*yz
variable deltayz equal -0.02*yz
if "${dir} == 1" then    "change_box all x delta 0 ${delta} xy delta ${deltaxy} xz delta ${deltaxz} remap units box"
if "${dir} == 2" then    "change_box all y delta 0 ${delta} yz delta ${deltayz} remap units box"
if "${dir} == 3" then    "change_box all z delta 0 ${delta} remap units box"
if "${dir} == 4" then    "change_box all yz delta ${delta} remap units box"
if "${dir} == 5" then    "change_box all xz delta ${delta} remap units box"
if "${dir} == 6" then    "change_box all xy delta ${delta} remap units box"
change_box all xy delta ${delta} remap units box
change_box all xy delta -0.25301061643641 remap units box
Changing box ...
WARNING: Triclinic box skew is large. LAMMPS will run inefficiently. (src/domain.cpp:221)
  triclinic box = (-0.14150848 -0.11986291 -0.20592074) to (15.765368 12.530668 16.281373) with tilt (-8.794624 1.2256099 0.44220088)

# Relax atoms positions

minimize ${etol} ${ftol} ${maxiter} ${maxeval}
minimize 0 ${ftol} ${maxiter} ${maxeval}
minimize 0 1e-10 ${maxiter} ${maxeval}
minimize 0 1e-10 100000 ${maxeval}
minimize 0 1e-10 100000 100000
Generated 6 of 6 mixed pair_coeff terms from arithmetic mixing rule
Neighbor list info ...
  update: every = 1 steps, delay = 0 steps, check = yes
  max neighbors/atom: 2000, page size: 100000
  master list distance cutoff = 7
  ghost atom cutoff = 7
  binsize = 3.5, bins = 8 4 5
  1 neighbor lists, perpetual/occasional/extra = 1 0 0
  (1) pair lj/cut, perpetual
      attributes: half, newton on
      pair build: half/bin/newton/tri
      stencil: half/bin/3d/tri
      bin: standard
WARNING: Inconsistent image flags
For more information see https://docs.lammps.org/err0027 (src/domain.cpp:1052)
Per MPI rank memory allocation (min/avg/max) = 17.49 | 17.49 | 17.49 Mbytes
   Step          Temp          E_pair         E_mol          TotEng         Press     
    250437   268.28922     -346.16278      299.00469      171.16524      3229.8656    
    250483   268.28922     -362.1319       247.15605      103.34749      385.14719    
Loop time of 0.0201082 on 1 procs for 46 steps with 274 atoms

100.0% CPU use with 1 MPI tasks x 1 OpenMP threads

Minimization stats:
  Stopping criterion = linesearch alpha is zero
  Energy initial, next-to-last, final = 
     -47.1580993558031  -114.975847444627  -114.975847444627
  Force two-norm initial, final = 137.27587 11.26426
  Force max component initial, final = 15.71423 1.391824
  Final line search alpha, max atom move = 8.5608158e-11 1.1915149e-10
  Iterations, force evaluations = 46 145

MPI task timing breakdown:
Section |  min time  |  avg time  |  max time  |%varavg| %total
---------------------------------------------------------------
Pair    | 0.014613   | 0.014613   | 0.014613   |   0.0 | 72.67
Bond    | 0.0044684  | 0.0044684  | 0.0044684  |   0.0 | 22.22
Neigh   | 0          | 0          | 0          |   0.0 |  0.00
Comm    | 0.00060227 | 0.00060227 | 0.00060227 |   0.0 |  3.00
Output  | 0          | 0          | 0          |   0.0 |  0.00
Modify  | 0          | 0          | 0          |   0.0 |  0.00
Other   |            | 0.0004248  |            |       |  2.11

Nlocal:            274 ave         274 max         274 min
Histogram: 1 0 0 0 0 0 0 0 0 0
Nghost:           1974 ave        1974 max        1974 min
Histogram: 1 0 0 0 0 0 0 0 0 0
Neighs:          15272 ave       15272 max       15272 min
Histogram: 1 0 0 0 0 0 0 0 0 0

Total # of neighbors = 15272
Ave neighs/atom = 55.737226
Ave special neighs/atom = 6.2116788
Neighbor list builds = 0
Dangerous builds = 0

# Obtain new stress tensor

variable tmp equal pxx
variable pxx1 equal ${tmp}
variable pxx1 equal -215.245270379338
variable tmp equal pyy
variable pyy1 equal ${tmp}
variable pyy1 equal -474.878740233654
variable tmp equal pzz
variable pzz1 equal ${tmp}
variable pzz1 equal 1845.5655663551
variable tmp equal pxy
variable pxy1 equal ${tmp}
variable pxy1 equal 7434.48721658578
variable tmp equal pxz
variable pxz1 equal ${tmp}
variable pxz1 equal -3099.71587175358
variable tmp equal pyz
variable pyz1 equal ${tmp}
variable pyz1 equal 988.330151149797

# Compute elastic constant from pressure tensor

variable C1neg equal ${d1}
variable C1neg equal -17.5519031973861
variable C2neg equal ${d2}
variable C2neg equal -18.3228580241665
variable C3neg equal ${d3}
variable C3neg equal -7.11604422008795
variable C4neg equal ${d4}
variable C4neg equal -9.75600679636782
variable C5neg equal ${d5}
variable C5neg equal -5.35560290270615
variable C6neg equal ${d6}
variable C6neg equal 25.4683249519282

# Reset box and simulation parameters

clear
OMP_NUM_THREADS environment is not set. Defaulting to 1 thread.
  using 1 OpenMP thread(s) per MPI task
box tilt large

The 'box' command has been removed and will be ignored

read_restart restart_333-EXP-11-vasp.equil
Reading restart file ...
  restart file = 10 Sep 2025, LAMMPS = 10 Sep 2025
  restoring atom style full from restart
  triclinic box = (-0.14150848 -0.11986291 -0.20592074) to (15.765368 12.530668 16.281373) with tilt (-8.5416134 1.2256099 0.44220088)
WARNING: Triclinic box skew is large. LAMMPS will run inefficiently. (src/domain.cpp:221)
  1 by 1 by 1 MPI processor grid
  restoring pair style lj/cut from restart
  restoring bond style harmonic from restart
  restoring angle style hybrid from restart
  restoring dihedral style harmonic from restart
  274 atoms
  294 bonds
  557 angles
  696 dihedrals
Finding 1-2 1-3 1-4 neighbors ...
  special bond factors lj:    0        0        1       
  special bond factors coul:  0        0        1       
     4 = max # of 1-2 neighbors
     8 = max # of 1-3 neighbors
    12 = max # of special neighbors
  special bonds CPU = 0.000 seconds
  read_restart CPU = 0.001 seconds
include ./input/angles_333-EXP-11-vasp.mod
angle_style hybrid fourier cosine/periodic
angle_coeff 1 fourier 157.882480        0.343737        0.374972        0.281246
angle_coeff 2 fourier 221.735285        0.343737        0.374972        0.281246
angle_coeff 3 fourier 83.380072        0.343737        0.374972        0.281246
angle_coeff 4 fourier 58.020602        0.343737        0.374972        0.281246
angle_coeff 5 fourier 114.246973        0.343737        0.374972        0.281246
angle_coeff 6 fourier 32.417871        0.343737        0.374972        0.281246
angle_coeff 7 fourier 90.420412        0.343737        0.374972        0.281246
angle_coeff 8 fourier 75.498766        0.343737        0.374972        0.281246
angle_coeff 9 cosine/periodic 88.853997              -1               3

# Positive deformation

variable delta equal ${up}*${len0}
variable delta equal 0.02*${len0}
variable delta equal 0.02*12.6505308218205
variable deltaxy equal ${up}*xy
variable deltaxy equal 0.02*xy
variable deltaxz equal ${up}*xz
variable deltaxz equal 0.02*xz
variable deltayz equal ${up}*yz
variable deltayz equal 0.02*yz
if "${dir} == 1" then    "change_box all x delta 0 ${delta} xy delta ${deltaxy} xz delta ${deltaxz} remap units box"
if "${dir} == 2" then    "change_box all y delta 0 ${delta} yz delta ${deltayz} remap units box"
if "${dir} == 3" then    "change_box all z delta 0 ${delta} remap units box"
if "${dir} == 4" then    "change_box all yz delta ${delta} remap units box"
if "${dir} == 5" then    "change_box all xz delta ${delta} remap units box"
if "${dir} == 6" then    "change_box all xy delta ${delta} remap units box"
change_box all xy delta ${delta} remap units box
change_box all xy delta 0.25301061643641 remap units box
Changing box ...
WARNING: Triclinic box skew is large. LAMMPS will run inefficiently. (src/domain.cpp:221)
  triclinic box = (-0.14150848 -0.11986291 -0.20592074) to (15.765368 12.530668 16.281373) with tilt (-8.2886028 1.2256099 0.44220088)

# Relax atoms positions

minimize ${etol} ${ftol} ${maxiter} ${maxeval}
minimize 0 ${ftol} ${maxiter} ${maxeval}
minimize 0 1e-10 ${maxiter} ${maxeval}
minimize 0 1e-10 100000 ${maxeval}
minimize 0 1e-10 100000 100000
Generated 6 of 6 mixed pair_coeff terms from arithmetic mixing rule
Neighbor list info ...
  update: every = 1 steps, delay = 0 steps, check = yes
  max neighbors/atom: 2000, page size: 100000
  master list distance cutoff = 7
  ghost atom cutoff = 7
  binsize = 3.5, bins = 8 4 5
  1 neighbor lists, perpetual/occasional/extra = 1 0 0
  (1) pair lj/cut, perpetual
      attributes: half, newton on
      pair build: half/bin/newton/tri
      stencil: half/bin/3d/tri
      bin: standard
WARNING: Inconsistent image flags
For more information see https://docs.lammps.org/err0027 (src/domain.cpp:1052)
Per MPI rank memory allocation (min/avg/max) = 17.49 | 17.49 | 17.49 Mbytes
   Step          Temp          E_pair         E_mol          TotEng         Press     
    250437   268.28922     -346.28767      294.88159      166.91726      2930.0901    
    250478   268.28922     -363.93387      240.91666      95.306139     -89.177465    
Loop time of 0.0172758 on 1 procs for 41 steps with 274 atoms

100.0% CPU use with 1 MPI tasks x 1 OpenMP threads

Minimization stats:
  Stopping criterion = linesearch alpha is zero
  Energy initial, next-to-last, final = 
     -51.4060776182191  -123.017202439477  -123.017202439477
  Force two-norm initial, final = 136.60824 12.294615
  Force max component initial, final = 13.737572 2.0296803
  Final line search alpha, max atom move = 5.8464749e-11 1.1866475e-10
  Iterations, force evaluations = 41 137

MPI task timing breakdown:
Section |  min time  |  avg time  |  max time  |%varavg| %total
---------------------------------------------------------------
Pair    | 0.012398   | 0.012398   | 0.012398   |   0.0 | 71.76
Bond    | 0.0039661  | 0.0039661  | 0.0039661  |   0.0 | 22.96
Neigh   | 0          | 0          | 0          |   0.0 |  0.00
Comm    | 0.00052804 | 0.00052804 | 0.00052804 |   0.0 |  3.06
Output  | 0          | 0          | 0          |   0.0 |  0.00
Modify  | 0          | 0          | 0          |   0.0 |  0.00
Other   |            | 0.0003837  |            |       |  2.22

Nlocal:            274 ave         274 max         274 min
Histogram: 1 0 0 0 0 0 0 0 0 0
Nghost:           1936 ave        1936 max        1936 min
Histogram: 1 0 0 0 0 0 0 0 0 0
Neighs:          15277 ave       15277 max       15277 min
Histogram: 1 0 0 0 0 0 0 0 0 0

Total # of neighbors = 15277
Ave neighs/atom = 55.755474
Ave special neighs/atom = 6.2116788
Neighbor list builds = 0
Dangerous builds = 0

# Obtain new stress tensor

variable tmp equal pe
variable e1 equal ${tmp}
variable e1 equal -123.017202439477
variable tmp equal press
variable p1 equal ${tmp}
variable p1 equal -89.1774650079479
variable tmp equal pxx
variable pxx1 equal ${tmp}
variable pxx1 equal -194.334663229475
variable tmp equal pyy
variable pyy1 equal ${tmp}
variable pyy1 equal -3289.49942350281
variable tmp equal pzz
variable pzz1 equal ${tmp}
variable pzz1 equal 3216.30169170845
variable tmp equal pxy
variable pxy1 equal ${tmp}
variable pxy1 equal 1915.13752600229
variable tmp equal pxz
variable pxz1 equal ${tmp}
variable pxz1 equal -3376.87813853565
variable tmp equal pyz
variable pyz1 equal ${tmp}
variable pyz1 equal 1770.53365000356

# Compute elastic constant from pressure tensor

variable C1pos equal ${d1}
variable C1pos equal 17.4473501616368
variable C2pos equal ${d2}
variable C2pos equal 32.3959614405122
variable C3pos equal ${d3}
variable C3pos equal 0.262363593321199
variable C4pos equal ${d4}
variable C4pos equal 5.844989302099
variable C5pos equal ${d5}
variable C5pos equal 6.7414142366165
variable C6pos equal ${d6}
variable C6pos equal 2.1284235009892

# Combine positive and negative

variable C1${dir} equal 0.5*(${C1neg}+${C1pos})
variable C16 equal 0.5*(${C1neg}+${C1pos})
variable C16 equal 0.5*(-17.5519031973861+${C1pos})
variable C16 equal 0.5*(-17.5519031973861+17.4473501616368)
variable C2${dir} equal 0.5*(${C2neg}+${C2pos})
variable C26 equal 0.5*(${C2neg}+${C2pos})
variable C26 equal 0.5*(-18.3228580241665+${C2pos})
variable C26 equal 0.5*(-18.3228580241665+32.3959614405122)
variable C3${dir} equal 0.5*(${C3neg}+${C3pos})
variable C36 equal 0.5*(${C3neg}+${C3pos})
variable C36 equal 0.5*(-7.11604422008795+${C3pos})
variable C36 equal 0.5*(-7.11604422008795+0.262363593321199)
variable C4${dir} equal 0.5*(${C4neg}+${C4pos})
variable C46 equal 0.5*(${C4neg}+${C4pos})
variable C46 equal 0.5*(-9.75600679636782+${C4pos})
variable C46 equal 0.5*(-9.75600679636782+5.844989302099)
variable C5${dir} equal 0.5*(${C5neg}+${C5pos})
variable C56 equal 0.5*(${C5neg}+${C5pos})
variable C56 equal 0.5*(-5.35560290270615+${C5pos})
variable C56 equal 0.5*(-5.35560290270615+6.7414142366165)
variable C6${dir} equal 0.5*(${C6neg}+${C6pos})
variable C66 equal 0.5*(${C6neg}+${C6pos})
variable C66 equal 0.5*(25.4683249519282+${C6pos})
variable C66 equal 0.5*(25.4683249519282+2.1284235009892)

# Delete dir to make sure it is not reused

variable dir delete

# Output final values

variable C11all equal ${C11}
variable C11all equal 27.9705828692797
variable C22all equal ${C22}
variable C22all equal 33.1792540302573
variable C33all equal ${C33}
variable C33all equal 46.5847250308562

variable C12all equal 0.5*(${C12}+${C21})
variable C12all equal 0.5*(11.8317015495582+${C21})
variable C12all equal 0.5*(11.8317015495582+11.6232983805431)
variable C13all equal 0.5*(${C13}+${C31})
variable C13all equal 0.5*(12.875318633018+${C31})
variable C13all equal 0.5*(12.875318633018+11.4414465161347)
variable C23all equal 0.5*(${C23}+${C32})
variable C23all equal 0.5*(16.9895187706802+${C32})
variable C23all equal 0.5*(16.9895187706802+16.8565618169459)

variable C44all equal ${C44}
variable C44all equal 14.433893948327
variable C55all equal ${C55}
variable C55all equal 14.7560080813553
variable C66all equal ${C66}
variable C66all equal 13.7983742264587

variable C14all equal 0.5*(${C14}+${C41})
variable C14all equal 0.5*(2.57122377017555+${C41})
variable C14all equal 0.5*(2.57122377017555+3.78329080809478)
variable C15all equal 0.5*(${C15}+${C51})
variable C15all equal 0.5*(2.95018304508575+${C51})
variable C15all equal 0.5*(2.95018304508575+1.63295062433045)
variable C16all equal 0.5*(${C16}+${C61})
variable C16all equal 0.5*(-0.0522765178746507+${C61})
variable C16all equal 0.5*(-0.0522765178746507+1.6240633944917)

variable C24all equal 0.5*(${C24}+${C42})
variable C24all equal 0.5*(1.9039437855304+${C42})
variable C24all equal 0.5*(1.9039437855304+3.05361892160014)
variable C25all equal 0.5*(${C25}+${C52})
variable C25all equal 0.5*(-0.094445579832799+${C52})
variable C25all equal 0.5*(-0.094445579832799+0.323442622496125)
variable C26all equal 0.5*(${C26}+${C62})
variable C26all equal 0.5*(7.03655170817285+${C62})
variable C26all equal 0.5*(7.03655170817285+6.54741968550213)

variable C34all equal 0.5*(${C34}+${C43})
variable C34all equal 0.5*(2.55312804091995+${C43})
variable C34all equal 0.5*(2.55312804091995+2.50922093330338)
variable C35all equal 0.5*(${C35}+${C53})
variable C35all equal 0.5*(-4.36576007407638+${C53})
variable C35all equal 0.5*(-4.36576007407638+-3.50676899619882)
variable C36all equal 0.5*(${C36}+${C63})
variable C36all equal 0.5*(-3.42684031338338+${C63})
variable C36all equal 0.5*(-3.42684031338338+-2.21888323330485)

variable C45all equal 0.5*(${C45}+${C54})
variable C45all equal 0.5*(0.80356723141535+${C54})
variable C45all equal 0.5*(0.80356723141535+0.11000106971045)
variable C46all equal 0.5*(${C46}+${C64})
variable C46all equal 0.5*(-1.95550874713441+${C64})
variable C46all equal 0.5*(-1.95550874713441+-0.6771321079253)
variable C56all equal 0.5*(${C56}+${C65})
variable C56all equal 0.5*(0.692905666955175+${C65})
variable C56all equal 0.5*(0.692905666955175+0.76548073867815)

# Average moduli for cubic crystals

variable C11cubic equal (${C11all}+${C22all}+${C33all})/3.0
variable C11cubic equal (27.9705828692797+${C22all}+${C33all})/3.0
variable C11cubic equal (27.9705828692797+33.1792540302573+${C33all})/3.0
variable C11cubic equal (27.9705828692797+33.1792540302573+46.5847250308562)/3.0
variable C12cubic equal (${C12all}+${C13all}+${C23all})/3.0
variable C12cubic equal (11.7274999650507+${C13all}+${C23all})/3.0
variable C12cubic equal (11.7274999650507+12.1583825745764+${C23all})/3.0
variable C12cubic equal (11.7274999650507+12.1583825745764+16.923040293813)/3.0
variable C44cubic equal (${C44all}+${C55all}+${C66all})/3.0
variable C44cubic equal (14.433893948327+${C55all}+${C66all})/3.0
variable C44cubic equal (14.433893948327+14.7560080813553+${C66all})/3.0
variable C44cubic equal (14.433893948327+14.7560080813553+13.7983742264587)/3.0

variable bulkmodulus equal (${C11cubic}+2*${C12cubic})/3.0
variable bulkmodulus equal (35.9115206434644+2*${C12cubic})/3.0
variable bulkmodulus equal (35.9115206434644+2*13.6029742778134)/3.0
variable shearmodulus1 equal ${C44cubic}
variable shearmodulus1 equal 14.3294254187137
variable shearmodulus2 equal (${C11cubic}-${C12cubic})/2.0
variable shearmodulus2 equal (35.9115206434644-${C12cubic})/2.0
variable shearmodulus2 equal (35.9115206434644-13.6029742778134)/2.0
variable poissonratio equal 1.0/(1.0+${C11cubic}/${C12cubic})
variable poissonratio equal 1.0/(1.0+35.9115206434644/${C12cubic})
variable poissonratio equal 1.0/(1.0+35.9115206434644/13.6029742778134)

print "Elastic Constant 1 1 = ${C11all}"
Elastic Constant 1 1 = 27.9705828692797
print "Elastic Constant 2 2 = ${C22all}"
Elastic Constant 2 2 = 33.1792540302573
print "Elastic Constant 3 3 = ${C33all}"
Elastic Constant 3 3 = 46.5847250308562

print "Elastic Constant 1 2 = ${C12all}"
Elastic Constant 1 2 = 11.7274999650507
print "Elastic Constant 1 3 = ${C13all}"
Elastic Constant 1 3 = 12.1583825745764
print "Elastic Constant 2 3 = ${C23all}"
Elastic Constant 2 3 = 16.923040293813

print "Elastic Constant 4 4 = ${C44all}"
Elastic Constant 4 4 = 14.433893948327
print "Elastic Constant 5 5 = ${C55all}"
Elastic Constant 5 5 = 14.7560080813553
print "Elastic Constant 6 6 = ${C66all}"
Elastic Constant 6 6 = 13.7983742264587

print "Elastic Constant 1 4 = ${C14all}"
Elastic Constant 1 4 = 3.17725728913516
print "Elastic Constant 1 5 = ${C15all}"
Elastic Constant 1 5 = 2.2915668347081
print "Elastic Constant 1 6 = ${C16all}"
Elastic Constant 1 6 = 0.785893438308525

print "Elastic Constant 2 4 = ${C24all}"
Elastic Constant 2 4 = 2.47878135356527
print "Elastic Constant 2 5 = ${C25all}"
Elastic Constant 2 5 = 0.114498521331663
print "Elastic Constant 2 6 = ${C26all}"
Elastic Constant 2 6 = 6.79198569683749

print "Elastic Constant 3 4 = ${C34all}"
Elastic Constant 3 4 = 2.53117448711166
print "Elastic Constant 3 5 = ${C35all}"
Elastic Constant 3 5 = -3.9362645351376
print "Elastic Constant 3 6 = ${C36all}"
Elastic Constant 3 6 = -2.82286177334412

print "Elastic Constant 4 5 = ${C45all}"
Elastic Constant 4 5 = 0.4567841505629
print "Elastic Constant 4 6 = ${C46all}"
Elastic Constant 4 6 = -1.31632042752986
print "Elastic Constant 5 6 = ${C56all}"
Elastic Constant 5 6 = 0.729193202816663

print "Bulk Modulus = ${bulkmodulus} ${cunits}"
Bulk Modulus = 21.0391563996971 GPa
print "Shear Modulus 1 = ${shearmodulus1} ${cunits}"
Shear Modulus 1 = 14.3294254187137 GPa
print "Shear Modulus 2 = ${shearmodulus2} ${cunits}"
Shear Modulus 2 = 11.1542731828255 GPa
print "Poisson Ratio = ${poissonratio}"
Poisson Ratio = 0.274727113735897

variable rho equal density
print "density (g/cm^3) = ${rho}"
density (g/cm^3) = 1.52733640921889
Total wall time: 0:00:44
