units           real
atom_style      full
boundary        p p p

pair_style      lj/cut 5.000
bond_style      harmonic
angle_style     hybrid fourier cosine/periodic
dihedral_style  harmonic

pair_modify     tail yes mix arithmetic
special_bonds   lj/coul 0.0 0.0 1.0
dielectric      1.0
box tilt        large

The 'box' command has been removed and will be ignored

read_data       ./dat/data.333U-50C-9-vasp
Reading data file ...
  triclinic box = (0 0 0) to (16.60779 13.446743 17.350162) with tilt (-9.450478 -1.071671 0.003425)
WARNING: Triclinic box skew is large. LAMMPS will run inefficiently. (src/domain.cpp:221)
  1 by 1 by 1 MPI processor grid
  reading atoms ...
  386 atoms
  scanning bonds ...
  4 = max bonds/atom
  scanning angles ...
  6 = max angles/atom
  scanning dihedrals ...
  30 = max dihedrals/atom
  triclinic box = (0 0 0) to (16.60779 13.446743 17.350162) with tilt (-9.450478 -1.071671 0.003425)
WARNING: Triclinic box skew is large. LAMMPS will run inefficiently. (src/domain.cpp:221)
  1 by 1 by 1 MPI processor grid
  reading bonds ...
  411 bonds
  reading angles ...
  781 angles
  reading dihedrals ...
  987 dihedrals
Finding 1-2 1-3 1-4 neighbors ...
  special bond factors lj:    0        0        1       
  special bond factors coul:  0        0        1       
     4 = max # of 1-2 neighbors
    10 = max # of 1-3 neighbors
    14 = max # of special neighbors
  special bonds CPU = 0.000 seconds
  read_data CPU = 0.012 seconds

#### Atom Groupings ####
group           fram     id   1:386
386 atoms in group fram
#### END Atom Groupings ####

compute am all property/atom mass
dump        atom_pos all extxyz 100 ./output/333U-50C-9-vasp.lammpstrj
dump_modify atom_pos element Si C H O mass yes
thermo          1000
thermo_style    custom step temp pe ke etotal press vol density

variable up equal 2e-2
variable cfac equal 1.0e-4
variable cunits string GPa

# Define minimization parameters
variable etol equal 0.0
variable ftol equal 1.0e-10
variable maxiter equal 100000
variable maxeval equal 100000
variable dmax equal 1.0e-2

variable temp equal 300.0
variable thermal_damp index 100.0
variable pressure_damp index 500.0

fix relax all box/relax aniso 0.0 vmax 0.001
unfix relax
minimize ${etol} ${ftol} ${maxiter} ${maxeval}
minimize 0 ${ftol} ${maxiter} ${maxeval}
minimize 0 1e-10 ${maxiter} ${maxeval}
minimize 0 1e-10 100000 ${maxeval}
minimize 0 1e-10 100000 100000
Generated 6 of 6 mixed pair_coeff terms from arithmetic mixing rule
Neighbor list info ...
  update: every = 1 steps, delay = 0 steps, check = yes
  max neighbors/atom: 2000, page size: 100000
  master list distance cutoff = 7
  ghost atom cutoff = 7
  binsize = 3.5, bins = 8 4 5
  1 neighbor lists, perpetual/occasional/extra = 1 0 0
  (1) pair lj/cut, perpetual
      attributes: half, newton on
      pair build: half/bin/newton/tri
      stencil: half/bin/3d/tri
      bin: standard
WARNING: Inconsistent image flags
For more information see https://docs.lammps.org/err0027 (src/domain.cpp:1052)
Per MPI rank memory allocation (min/avg/max) = 19.54 | 19.54 | 19.54 Mbytes
   Step          Temp          PotEng         KinEng         TotEng         Press          Volume        Density    
         0   0              1545.4986      0              1545.4986      111891.66      3874.65        1.7483484    
       149   0              207.56205      0              207.56205      15868.504      3874.65        1.7483484    
Loop time of 0.0882277 on 1 procs for 149 steps with 386 atoms

100.0% CPU use with 1 MPI tasks x 1 OpenMP threads

Minimization stats:
  Stopping criterion = linesearch alpha is zero
  Energy initial, next-to-last, final = 
      1545.49856616586   207.562049839291   207.562049839291
  Force two-norm initial, final = 902.9394 18.237257
  Force max component initial, final = 97.052252 5.1135929
  Final line search alpha, max atom move = 2.8583841e-11 1.4616613e-10
  Iterations, force evaluations = 149 349

MPI task timing breakdown:
Section |  min time  |  avg time  |  max time  |%varavg| %total
---------------------------------------------------------------
Pair    | 0.060275   | 0.060275   | 0.060275   |   0.0 | 68.32
Bond    | 0.013723   | 0.013723   | 0.013723   |   0.0 | 15.55
Neigh   | 0.0099217  | 0.0099217  | 0.0099217  |   0.0 | 11.25
Comm    | 0.0018556  | 0.0018556  | 0.0018556  |   0.0 |  2.10
Output  | 0.00050814 | 0.00050814 | 0.00050814 |   0.0 |  0.58
Modify  | 0          | 0          | 0          |   0.0 |  0.00
Other   |            | 0.001944   |            |       |  2.20

Nlocal:            386 ave         386 max         386 min
Histogram: 1 0 0 0 0 0 0 0 0 0
Nghost:           2488 ave        2488 max        2488 min
Histogram: 1 0 0 0 0 0 0 0 0 0
Neighs:          26200 ave       26200 max       26200 min
Histogram: 1 0 0 0 0 0 0 0 0 0

Total # of neighbors = 26200
Ave neighs/atom = 67.875648
Ave special neighs/atom = 6.1761658
Neighbor list builds = 4
Dangerous builds = 0

# Generating the full routine as described in the paper for UFF
fix nvt_relax   all nvt temp 300 300 ${thermal_damp}
fix nvt_relax   all nvt temp 300 300 100.0
run 100000      # 100 picoseconds
Generated 6 of 6 mixed pair_coeff terms from arithmetic mixing rule
WARNING: Inconsistent image flags
For more information see https://docs.lammps.org/err0027 (src/domain.cpp:1052)
Per MPI rank memory allocation (min/avg/max) = 19.49 | 19.49 | 19.49 Mbytes
   Step          Temp          PotEng         KinEng         TotEng         Press          Volume        Density    
       149   0              207.56205      0              207.56205      15868.504      3874.65        1.7483484    
      1000   57.5618        271.88608      66.058605      337.94469      18829.698      3874.65        1.7483484    
      2000   269.56548      494.99432      309.35655      804.35087      28213.301      3874.65        1.7483484    
      3000   320.55399      553.89962      367.87157      921.77118      21409.751      3874.65        1.7483484    
      4000   289.96043      479.88554      332.76203      812.64757      18037.25       3874.65        1.7483484    
      5000   300.88543      511.52167      345.29969      856.82136      17718.289      3874.65        1.7483484    
      6000   299.32716      524.00135      343.51141      867.51276      18771.51       3874.65        1.7483484    
      7000   277.02633      512.55983      317.91871      830.47854      21419.139      3874.65        1.7483484    
      8000   309.8129       524.4611       355.54496      880.00606      15031.043      3874.65        1.7483484    
      9000   296.01469      499.62245      339.70998      839.33243      19437.038      3874.65        1.7483484    
     10000   294.50399      519.30842      337.97628      857.2847       23619.888      3874.65        1.7483484    
     11000   313.63263      505.60175      359.92853      865.53028      20518.552      3874.65        1.7483484    
     12000   313.7647       483.04459      360.0801       843.12469      22222.081      3874.65        1.7483484    
     13000   305.23769      512.88721      350.2944       863.18161      19837.782      3874.65        1.7483484    
     14000   293.52097      494.56025      336.84815      831.40841      19513.803      3874.65        1.7483484    
     15000   293.16116      511.35568      336.43523      847.7909       15060.401      3874.65        1.7483484    
     16000   287.95402      501.0345       330.45945      831.49395      12688.141      3874.65        1.7483484    
     17000   318.3435       518.63429      365.33478      883.96907      20222.092      3874.65        1.7483484    
     18000   296.64115      501.85809      340.4289       842.28699      15343.191      3874.65        1.7483484    
     19000   295.86087      517.81566      339.53344      857.3491       21561.596      3874.65        1.7483484    
     20000   285.4731       516.48766      327.61232      844.09997      21990.622      3874.65        1.7483484    
     21000   286.11856      544.63372      328.35306      872.98678      16078.05       3874.65        1.7483484    
     22000   296.31337      502.867        340.05274      842.91974      18918.255      3874.65        1.7483484    
     23000   333.61555      510.82671      382.86116      893.68788      19159.758      3874.65        1.7483484    
     24000   291.44695      513.36849      334.46798      847.83646      19019.353      3874.65        1.7483484    
     25000   319.77687      522.0721       366.97974      889.05184      19266.685      3874.65        1.7483484    
     26000   304.74896      490.87009      349.73353      840.60362      15587.226      3874.65        1.7483484    
     27000   323.85632      497.78015      371.66136      869.44151      14415.346      3874.65        1.7483484    
     28000   301.58043      495.30388      346.09728      841.40116      22006.475      3874.65        1.7483484    
     29000   309.04586      524.68288      354.6647       879.34758      16895.721      3874.65        1.7483484    
     30000   277.04994      514.69754      317.9458       832.64335      10344.774      3874.65        1.7483484    
     31000   302.22065      555.03713      346.83201      901.86914      16278.775      3874.65        1.7483484    
     32000   304.79913      504.91222      349.79109      854.70332      14800.152      3874.65        1.7483484    
     33000   296.72982      522.49936      340.53066      863.03002      17861.545      3874.65        1.7483484    
     34000   278.7445       507.38695      319.89049      827.27745      18907.932      3874.65        1.7483484    
     35000   295.29059      537.54494      338.87899      876.42393      10757.006      3874.65        1.7483484    
     36000   295.58056      499.40893      339.21176      838.62068      16057.709      3874.65        1.7483484    
     37000   301.31345      497.04037      345.79089      842.83126      18606.675      3874.65        1.7483484    
     38000   312.28226      519.58676      358.37883      877.96559      16375.527      3874.65        1.7483484    
     39000   296.41724      513.93438      340.17194      854.10632      18988.107      3874.65        1.7483484    
     40000   311.98757      519.17228      358.04063      877.21291      21050.109      3874.65        1.7483484    
     41000   288.9937       508.37662      331.6526       840.02922      14958.277      3874.65        1.7483484    
     42000   305.59645      527.04505      350.70611      877.75116      21627.627      3874.65        1.7483484    
     43000   296.55386      503.64844      340.32873      843.97718      17399.168      3874.65        1.7483484    
     44000   322.03674      515.97292      369.57318      885.5461       14570.869      3874.65        1.7483484    
     45000   291.88587      495.73913      334.97169      830.71083      20060.287      3874.65        1.7483484    
     46000   289.92931      524.85796      332.72632      857.58428      17330.618      3874.65        1.7483484    
     47000   313.33144      491.57562      359.58288      851.1585       17109.167      3874.65        1.7483484    
     48000   290.62719      502.26368      333.52721      835.79089      15702.079      3874.65        1.7483484    
     49000   299.06083      533.13656      343.20576      876.34232      15805.752      3874.65        1.7483484    
     50000   325.49039      507.16142      373.53664      880.69806      16841.733      3874.65        1.7483484    
     51000   301.22104      501.99511      345.68484      847.67996      16857.627      3874.65        1.7483484    
     52000   312.13766      537.06652      358.21289      895.27941      20852.088      3874.65        1.7483484    
     53000   290.64338      509.59095      333.54579      843.13674      17154.695      3874.65        1.7483484    
     54000   296.82211      518.20467      340.63658      858.84125      17122.812      3874.65        1.7483484    
     55000   309.74672      520.24594      355.46902      875.71495      17342.29       3874.65        1.7483484    
     56000   289.38528      512.34388      332.10198      844.44586      8562.6786      3874.65        1.7483484    
     57000   296.96962      489.60983      340.80586      830.41568      16756.041      3874.65        1.7483484    
     58000   309.94499      506.39536      355.69655      862.09191      17437.724      3874.65        1.7483484    
     59000   285.10932      505.38568      327.19484      832.58051      23939.27       3874.65        1.7483484    
     60000   292.63063      491.07623      335.82638      826.90261      15642.619      3874.65        1.7483484    
     61000   293.43658      524.00584      336.75131      860.75715      18608.299      3874.65        1.7483484    
     62000   272.73748      494.11         312.99677      807.10677      23943.524      3874.65        1.7483484    
     63000   306.58026      523.87115      351.83514      875.70629      14720.06       3874.65        1.7483484    
     64000   316.58714      528.36082      363.31916      891.67998      18242.836      3874.65        1.7483484    
     65000   313.24258      490.3855       359.48091      849.86641      18543.146      3874.65        1.7483484    
     66000   334.72219      523.73938      384.13115      907.87053      14936.438      3874.65        1.7483484    
     67000   307.86331      503.37661      353.30759      856.6842       16307.738      3874.65        1.7483484    
     68000   298.84908      494.15063      342.96276      837.11339      16783.652      3874.65        1.7483484    
     69000   305.0695       517.55783      350.10137      867.6592       25241.541      3874.65        1.7483484    
     70000   301.61237      509.87287      346.13393      856.00681      17970.501      3874.65        1.7483484    
     71000   289.57384      497.82777      332.31837      830.14614      22635.472      3874.65        1.7483484    
     72000   299.53457      497.84188      343.74942      841.59131      16925.409      3874.65        1.7483484    
     73000   307.11332      514.68887      352.44689      867.13576      15021.02       3874.65        1.7483484    
     74000   305.89623      498.40781      351.05014      849.45795      20611.041      3874.65        1.7483484    
     75000   309.37208      492.39231      355.03907      847.43138      20756.68       3874.65        1.7483484    
     76000   307.4593       523.59997      352.84394      876.4439       18012.352      3874.65        1.7483484    
     77000   291.00505      520.00362      333.96085      853.96447      15296.322      3874.65        1.7483484    
     78000   304.2409       520.21979      349.15047      869.37026      21526.699      3874.65        1.7483484    
     79000   293.95244      512.65256      337.34331      849.99587      19900.965      3874.65        1.7483484    
     80000   296.57555      501.50467      340.35362      841.85829      23068.509      3874.65        1.7483484    
     81000   313.32952      510.65302      359.58068      870.2337       20311.265      3874.65        1.7483484    
     82000   308.83783      494.15323      354.42596      848.57919      17922.99       3874.65        1.7483484    
     83000   281.087        501.52134      322.57877      824.10011      12369.965      3874.65        1.7483484    
     84000   296.67824      536.76687      340.47147      877.23834      14106.173      3874.65        1.7483484    
     85000   310.56504      513.81825      356.40812      870.22638      21097.015      3874.65        1.7483484    
     86000   297.08986      506.08089      340.94385      847.02474      11020.376      3874.65        1.7483484    
     87000   313.94445      523.58046      360.28637      883.86684      18361.027      3874.65        1.7483484    
     88000   301.94226      525.35567      346.51252      871.86819      18467.7        3874.65        1.7483484    
     89000   284.22723      509.15273      326.18255      835.33528      16985.936      3874.65        1.7483484    
     90000   300.69036      502.69055      345.07583      847.76638      18959.808      3874.65        1.7483484    
     91000   296.09363      519.13796      339.80056      858.93853      17921.165      3874.65        1.7483484    
     92000   287.88831      457.04203      330.38404      787.42607      15330.244      3874.65        1.7483484    
     93000   308.17697      508.21261      353.66755      861.88016      20457.266      3874.65        1.7483484    
     94000   298.73574      485.09513      342.83268      827.92782      15569.512      3874.65        1.7483484    
     95000   321.05481      506.6111       368.44631      875.05742      14851.717      3874.65        1.7483484    
     96000   299.49793      527.87825      343.70738      871.58563      14664.639      3874.65        1.7483484    
     97000   297.13895      502.54483      341.00018      843.54501      18114.048      3874.65        1.7483484    
     98000   320.43947      516.391        367.74014      884.13115      17759.052      3874.65        1.7483484    
     99000   309.97956      490.36047      355.73622      846.0967       19288.941      3874.65        1.7483484    
    100000   280.18709      510.41693      321.54603      831.96297      21590.263      3874.65        1.7483484    
    100149   299.49888      532.16376      343.70847      875.87223      16733.472      3874.65        1.7483484    
Loop time of 26.3317 on 1 procs for 100000 steps with 386 atoms

Performance: 328.122 ns/day, 0.073 hours/ns, 3797.708 timesteps/s, 1.466 Matom-step/s
99.8% CPU use with 1 MPI tasks x 1 OpenMP threads

MPI task timing breakdown:
Section |  min time  |  avg time  |  max time  |%varavg| %total
---------------------------------------------------------------
Pair    | 16.053     | 16.053     | 16.053     |   0.0 | 60.97
Bond    | 3.8914     | 3.8914     | 3.8914     |   0.0 | 14.78
Neigh   | 4.6887     | 4.6887     | 4.6887     |   0.0 | 17.81
Comm    | 0.62945    | 0.62945    | 0.62945    |   0.0 |  2.39
Output  | 0.56597    | 0.56597    | 0.56597    |   0.0 |  2.15
Modify  | 0.36197    | 0.36197    | 0.36197    |   0.0 |  1.37
Other   |            | 0.1408     |            |       |  0.53

Nlocal:            386 ave         386 max         386 min
Histogram: 1 0 0 0 0 0 0 0 0 0
Nghost:           2524 ave        2524 max        2524 min
Histogram: 1 0 0 0 0 0 0 0 0 0
Neighs:          26213 ave       26213 max       26213 min
Histogram: 1 0 0 0 0 0 0 0 0 0

Total # of neighbors = 26213
Ave neighs/atom = 67.909326
Ave special neighs/atom = 6.1761658
Neighbor list builds = 1712
Dangerous builds = 0
unfix           nvt_relax

fix npt_relax   all npt temp 300 300 ${thermal_damp} iso 0 0 ${pressure_damp}
fix npt_relax   all npt temp 300 300 100.0 iso 0 0 ${pressure_damp}
fix npt_relax   all npt temp 300 300 100.0 iso 0 0 500.0
run 100000      # 100 picoseconds
Generated 6 of 6 mixed pair_coeff terms from arithmetic mixing rule
WARNING: Inconsistent image flags
For more information see https://docs.lammps.org/err0027 (src/domain.cpp:1052)
Per MPI rank memory allocation (min/avg/max) = 19.5 | 19.5 | 19.5 Mbytes
   Step          Temp          PotEng         KinEng         TotEng         Press          Volume        Density    
    100149   299.49888      532.16376      343.70847      875.87223      16733.472      3874.65        1.7483484    
    101000   285.16484      526.26541      327.25856      853.52396      1764.003       3996.5221      1.6950333    
    102000   308.85588      514.37531      354.44668      868.82199     -4504.4482      4058.6443      1.6690889    
    103000   289.31704      502.40711      332.02367      834.43079      325.65214      3995.5534      1.6954443    
    104000   294.94543      570.52118      338.48288      909.00406      2044.5145      4006.5366      1.6907965    
    105000   292.09178      503.66919      335.20799      838.87718     -3050.055       4027.1584      1.6821385    
    106000   327.90492      510.22723      376.30758      886.5348      -2743.1936      4040.1902      1.6767127    
    107000   297.64243      523.47676      341.57798      865.05475      5857.6904      3987.286       1.6989597    
    108000   284.28808      496.32264      326.25237      822.57501      874.65463      3994.9087      1.6957179    
    109000   301.25311      514.16517      345.72165      859.88682      4278.3775      3997.2398      1.694729     
    110000   284.92192      487.83361      326.97978      814.81339      6424.9301      3966.0483      1.7080574    
    111000   287.50144      509.34016      329.94007      839.28022      3178.317       3979.6026      1.7022398    
    112000   281.75126      499.2406       323.34109      822.58169      3272.4479      3969.8799      1.7064088    
    113000   282.96449      508.35661      324.73341      833.09002      4406.4778      4022.8765      1.6839289    
    114000   312.28162      523.31942      358.37809      881.69751      175.96281      4022.8456      1.6839419    
    115000   296.69693      495.59009      340.49292      836.083       -3796.6094      4045.688       1.6744341    
    116000   314.38271      482.13798      360.78933      842.9273      -5399.313       4031.2209      1.6804433    
    117000   325.9818       507.40428      374.10058      881.50486      2374.5502      4016.081       1.6867782    
    118000   304.88927      511.72179      349.89454      861.61634      1404.9423      4026.1126      1.6825754    
    119000   271.39966      513.65229      311.46147      825.11376     -191.96664      3999.2973      1.6938571    
    120000   311.08666      490.88918      357.00674      847.89592     -5295.0429      4007.6229      1.6903382    
    121000   289.66774      523.60418      332.42614      856.03032      6439.7856      3973.7106      1.7047638    
    122000   280.82176      493.20005      322.27439      815.47444     -8050.3386      4030.0709      1.6809228    
    123000   300.38907      507.49525      344.73007      852.22532     -1094.8734      4020.0618      1.685108     
    124000   273.9386       514.81279      314.37519      829.18798      2707.2052      4001.7644      1.6928128    
    125000   311.21093      516.02042      357.14936      873.16978     -6226.518       4021.1575      1.6846488    
    126000   291.63805      490.07502      334.68729      824.76231      5162.5711      3997.9186      1.6944412    
    127000   299.84638      518.32348      344.10727      862.43075     -3260.3273      4031.0934      1.6804964    
    128000   285.10124      506.1199       327.18557      833.30548      1593.0406      3994.0021      1.6961028    
    129000   302.63923      516.15056      347.31238      863.46294      1984.8092      3999.6004      1.6937287    
    130000   295.73443      484.44982      339.38834      823.83816      2774.2155      3993.2304      1.6964305    
    131000   311.79259      510.39327      357.81687      868.21014     -574.53946      4005.6283      1.6911799    
    132000   282.89232      522.92875      324.65058      847.57934      1167.4698      4006.507       1.690809     
    133000   303.4139       531.54821      348.20139      879.7496      -2815.5205      4024.586       1.6832136    
    134000   308.05204      508.45448      353.52417      861.97865      8865.816       4001.216       1.6930448    
    135000   287.24821      509.08703      329.64946      838.73649      1734.7215      3987.3767      1.698921     
    136000   324.55615      535.57172      372.46448      908.03621     -1624.9237      4045.3934      1.6745561    
    137000   295.97422      501.73235      339.66353      841.39588     -2890.8393      3985.5504      1.6996995    
    138000   293.95752      531.71558      337.34914      869.06472      1625.0789      3999.083       1.6939478    
    139000   305.70147      492.39426      350.82663      843.22089      961.24711      4015.1264      1.6871793    
    140000   293.74231      505.34287      337.10216      842.44504      2520.2223      4006.258       1.6909141    
    141000   316.62709      482.13791      363.36501      845.50292      3952.8596      4005.4804      1.6912423    
    142000   317.97805      513.59128      364.91539      878.50667     -6860.5081      4040.6865      1.6765067    
    143000   306.53065      501.64681      351.77822      853.42503     -2663.1387      4008.344       1.6900341    
    144000   308.72125      490.6838       354.29217      844.97597      3328.1522      3994.1805      1.696027     
    145000   303.21177      529.52661      347.96942      877.49603      2441.772       4017.4602      1.6861992    
    146000   301.09599      492.51515      345.54134      838.05648      5529.4115      3975.4007      1.7040391    
    147000   288.80144      506.86789      331.43197      838.29985      727.22875      3986.4618      1.6993109    
    148000   304.83723      531.98764      349.83483      881.82247      4799.9116      3998.0029      1.6944055    
    149000   305.99747      493.39475      351.16633      844.56108      2298.2798      3992.056       1.6969296    
    150000   309.23244      501.07116      354.87882      855.94997      881.8777       4002.0474      1.6926931    
    151000   291.07469      509.22577      334.04077      843.26654     -6537.3238      4056.7019      1.6698881    
    152000   292.07523      510.35889      335.189        845.5479      -93.928502      4006.146       1.6909614    
    153000   302.9294       512.58103      347.64538      860.22641      8037.0685      3977.4836      1.7031467    
    154000   279.73939      508.88678      321.03224      829.91902      643.63326      4020.165       1.6850647    
    155000   291.24353      515.22555      334.23453      849.46008      2717.4459      3986.6589      1.6992269    
    156000   296.72643      501.08853      340.52677      841.6153       135.91558      4009.9586      1.6893536    
    157000   308.08818      496.08326      353.56565      849.64892      700.56818      3999.9682      1.693573     
    158000   323.31944      511.9404       371.04523      882.98563      1074.1348      3981.5651      1.7014008    
    159000   304.27948      513.95096      349.19475      863.14571      2767.7889      3994.8835      1.6957286    
    160000   313.21589      486.91977      359.45027      846.37004     -1103.1093      4015.6851      1.6869446    
    161000   317.14604      517.89538      363.96056      881.85594     -197.93641      4012.3455      1.6883487    
    162000   316.98411      490.34623      363.77473      854.12096      1191.434       4000.7261      1.6932522    
    163000   305.41055      533.341        350.49277      883.83376      1546.1584      4022.553       1.6840644    
    164000   293.31215      480.95093      336.60851      817.55944     -2047.8252      4022.5312      1.6840735    
    165000   280.06652      542.44253      321.40766      863.85019      7374.0941      3962.6592      1.7095182    
    166000   292.15452      487.17787      335.28         822.45787     -4410.1361      4014.3428      1.6875086    
    167000   312.09204      505.89585      358.16053      864.05638     -5610.6993      4019.4616      1.6853596    
    168000   280.89152      528.19558      322.35445      850.55002     -3608.6798      3997.3059      1.6947009    
    169000   298.66834      546.02174      342.75533      888.77707      862.17095      3973.5166      1.7048471    
    170000   301.83217      507.83683      346.38619      854.22302      3519.4019      3997.4365      1.6946456    
    171000   298.38297      501.80202      342.42784      844.22986      539.62325      3998.8262      1.6940566    
    172000   303.19144      475.67978      347.94609      823.62588     -1083.7514      3986.6729      1.699221     
    173000   307.7404       514.03869      353.16653      867.20522      6128.8063      4004.043       1.6918495    
    174000   304.17743      511.48556      349.07763      860.56319      2114.2355      4029.8788      1.6810029    
    175000   288.65538      503.94142      331.26435      835.20577     -6753.0765      4090.8723      1.6559398    
    176000   302.18968      527.45362      346.79646      874.25008      5905.4736      4012.6487      1.6882211    
    177000   301.88453      484.68658      346.44627      831.13285     -3350.3698      4044.5928      1.6748875    
    178000   289.32073      532.02383      332.02791      864.05173      313.26914      4015.8138      1.6868905    
    179000   301.16982      497.67833      345.62606      843.30439     -8214.8183      4049.5367      1.6728427    
    180000   284.7366       487.52625      326.76711      814.29336     -1184.8824      4022.5431      1.6840685    
    181000   287.84188      502.88231      330.33076      833.21307      4098.6205      4034.1656      1.6792166    
    182000   298.98709      487.47508      343.12113      830.59621     -2058.8414      4017.8692      1.6860275    
    183000   290.91122      484.45097      333.85317      818.30414      2556.7949      4005.4833      1.6912411    
    184000   308.49309      507.46474      354.03033      861.49507     -6943.9741      4055.4036      1.6704227    
    185000   320.23529      489.16653      367.50581      856.67234     -4320.0799      4013.519       1.687855     
    186000   283.97302      463.88047      325.89081      789.77128     -2322.561       4029.1968      1.6812875    
    187000   289.57804      511.10104      332.3232       843.42423     -2078.34        4028.2067      1.6817007    
    188000   322.91327      478.51448      370.5791       849.09359     -5946.3314      4045.4302      1.6745409    
    189000   305.02208      500.23856      350.04696      850.28553     -1330.8567      4034.0805      1.6792521    
    190000   297.31355      490.16244      341.20056      831.36301     -1051.275       4046.3048      1.6741789    
    191000   281.87191      484.58596      323.47955      808.06551      3151.8174      3992.0045      1.6969515    
    192000   316.26684      482.71647      362.95158      845.66805     -4045.3992      4050.7741      1.6723317    
    193000   284.2225       476.69033      326.17712      802.86745      78.41567       3982.2188      1.7011215    
    194000   304.77162      477.81127      349.75953      827.5708       3549.5613      3998.4753      1.6942053    
    195000   286.07346      491.45306      328.30129      819.75436     -4618.4783      4019.6313      1.6852884    
    196000   287.28031      509.51533      329.68629      839.20162     -1540.2235      4001.9365      1.69274      
    197000   311.52702      496.49988      357.51211      854.01199     -724.76106      4032.9782      1.6797111    
    198000   310.04072      469.98478      355.80641      825.79119     -3669.2694      4056.4016      1.6700117    
    199000   320.84754      501.92011      368.20844      870.12855      5341.8075      3985.6233      1.6996684    
    200000   305.5668       494.33015      350.67208      845.00223      6581.7531      3999.6601      1.6937034    
    200149   312.91034      499.16632      359.09962      858.26594     -2267.075       4029.0776      1.6813372    
Loop time of 29.5235 on 1 procs for 100000 steps with 386 atoms

Performance: 292.648 ns/day, 0.082 hours/ns, 3387.135 timesteps/s, 1.307 Matom-step/s
99.7% CPU use with 1 MPI tasks x 1 OpenMP threads

MPI task timing breakdown:
Section |  min time  |  avg time  |  max time  |%varavg| %total
---------------------------------------------------------------
Pair    | 16.483     | 16.483     | 16.483     |   0.0 | 55.83
Bond    | 5.3288     | 5.3288     | 5.3288     |   0.0 | 18.05
Neigh   | 5.455      | 5.455      | 5.455      |   0.0 | 18.48
Comm    | 0.63887    | 0.63887    | 0.63887    |   0.0 |  2.16
Output  | 0.59455    | 0.59455    | 0.59455    |   0.0 |  2.01
Modify  | 0.86251    | 0.86251    | 0.86251    |   0.0 |  2.92
Other   |            | 0.1609     |            |       |  0.54

Nlocal:            386 ave         386 max         386 min
Histogram: 1 0 0 0 0 0 0 0 0 0
Nghost:           2462 ave        2462 max        2462 min
Histogram: 1 0 0 0 0 0 0 0 0 0
Neighs:          25285 ave       25285 max       25285 min
Histogram: 1 0 0 0 0 0 0 0 0 0

Total # of neighbors = 25285
Ave neighs/atom = 65.505181
Ave special neighs/atom = 6.1761658
Neighbor list builds = 2052
Dangerous builds = 0
unfix           npt_relax

# fix nvt_heat    all nvt temp 300 1000 ${thermal_damp}
# run 100000      # 100 picoseconds
# unfix           nvt_heat
#
# fix npt_heat    all npt temp 1000 1000 ${thermal_damp} iso 0 0 ${pressure_damp}
# run 100000      # 100 picoseconds
# unfix           npt_heat
#
# fix cooling_npt all npt temp 1000 300 ${thermal_damp} iso 0 0 ${pressure_damp}
# run 700000      # 700 picoseconds
# unfix           cooling_npt
#
# fix npt_final   all npt temp 300 300 ${thermal_damp} iso 0 0 100
# run 100000      # 100 picoseconds
# unfix           npt_final

# density computation
variable rho equal density
fix integrate  all npt temp ${temp} ${temp} ${thermal_damp} iso 0 0 ${pressure_damp}
fix integrate  all npt temp 300 ${temp} ${thermal_damp} iso 0 0 ${pressure_damp}
fix integrate  all npt temp 300 300 ${thermal_damp} iso 0 0 ${pressure_damp}
fix integrate  all npt temp 300 300 100.0 iso 0 0 ${pressure_damp}
fix integrate  all npt temp 300 300 100.0 iso 0 0 500.0
fix rho50k all ave/time 10 5000 50000 v_rho mode scalar ave one
run 50000
Generated 6 of 6 mixed pair_coeff terms from arithmetic mixing rule
WARNING: Inconsistent image flags
For more information see https://docs.lammps.org/err0027 (src/domain.cpp:1052)
Per MPI rank memory allocation (min/avg/max) = 19.5 | 19.5 | 19.5 Mbytes
   Step          Temp          PotEng         KinEng         TotEng         Press          Volume        Density    
    200149   312.91034      499.16632      359.09962      858.26594     -2267.075       4029.0776      1.6813372    
    201000   288.39175      471.03475      330.9618       801.99655      5093.4206      4003.4371      1.6921056    
    202000   310.60442      482.69561      356.45331      839.14892      3375.4022      4044.4895      1.6749303    
    203000   303.42559      461.19302      348.2148       809.40782      480.03355      3998.1697      1.6943348    
    204000   284.656        501.55592      326.6746       828.23052      7682.3045      4031.1987      1.6804525    
    205000   294.97316      526.22912      338.5147       864.74382      5710.2834      3996.9454      1.6948538    
    206000   309.68942      476.27313      355.40325      831.67638     -4310.9713      4020.6944      1.6848428    
    207000   294.57639      493.7135       338.05937      831.77287     -294.16334      4035.0097      1.6788654    
    208000   271.65251      493.43082      311.75164      805.18246     -2019.1765      4034.628       1.6790242    
    209000   321.75113      482.18702      369.24542      851.43243     -1900.9139      4040.3951      1.6766276    
    210000   270.6491       484.18346      310.60012      794.78359     -1450.4694      4015.8675      1.6868679    
    211000   308.53823      511.41222      354.08214      865.49436      719.73072      4022.7552      1.6839797    
    212000   308.32147      483.04434      353.83337      836.87771     -382.24745      4045.1353      1.6746629    
    213000   298.2652       509.72326      342.29268      852.01594      3409.5363      4008.7413      1.6898666    
    214000   289.59758      494.51911      332.34562      826.86474     -2601.1839      4029.616       1.6811126    
    215000   286.15384      486.80593      328.39354      815.19948     -5034.2394      4056.0984      1.6701365    
    216000   303.93607      488.62514      348.80064      837.42578     -2072.5601      4021.0309      1.6847018    
    217000   308.4562       486.09879      353.98799      840.08678      794.66389      4007.564       1.6903631    
    218000   320.01149      495.25257      367.24898      862.50155      806.67012      4015.6891      1.6869429    
    219000   289.33304      496.74897      332.04203      828.79101     -1344.6263      4014.65        1.6873795    
    220000   302.07711      508.5217       346.66728      855.18898      7537.6414      4004.6542      1.6915913    
    221000   288.68722      503.44752      331.30088      834.7484       11135.111      4047.3869      1.6737313    
    222000   297.32996      461.60279      341.21939      802.82218     -4937.7219      4028.351       1.6816405    
    223000   300.99222      499.55009      345.42224      844.97233      206.12866      3995.3312      1.6955385    
    224000   285.41695      463.44838      327.54788      790.99626      1422.326       4006.9673      1.6906148    
    225000   317.23311      478.25936      364.06048      842.31984      1998.4455      4002.0083      1.6927097    
    226000   334.43593      495.60899      383.80265      879.41163     -8270.4158      4020.4048      1.6849642    
    227000   301.83686      480.27558      346.39156      826.66714      109.57426      4013.5717      1.6878328    
    228000   327.17933      512.76646      375.47488      888.24135      3946.4054      4012.7423      1.6881817    
    229000   299.78388      490.16129      344.03553      834.19682     -8116.122       4031.5235      1.6803172    
    230000   288.16225      477.78423      330.69841      808.48264     -326.78234      4038.1269      1.6775694    
    231000   315.96155      479.3495       362.60123      841.95073     -2985.643       4019.3785      1.6853944    
    232000   312.5261       503.08155      358.65866      861.74021      10245.435      4003.3564      1.6921396    
    233000   299.06306      516.37394      343.20831      859.58225      7288.4523      4013.9128      1.6876894    
    234000   291.91459      494.9522       335.00465      829.95685      4557.1052      4002.39        1.6925482    
    235000   311.61837      492.33632      357.61695      849.95327     -8257.2635      4030.4412      1.6807684    
    236000   275.2204       480.80457      315.84619      796.65076     -4395.9689      4023.1773      1.683803     
    237000   322.59195      480.64652      370.21035      850.85687      4124.3953      4005.4875      1.6912393    
    238000   271.28136      483.22397      311.32571      794.54968      3335.6834      4043.5282      1.6753285    
    239000   277.39655      514.97049      318.34357      833.31407      3182.9937      3980.2154      1.7019778    
    240000   280.67685      502.97712      322.10809      825.0852       4176.7615      4034.9905      1.6788734    
    241000   294.89542      519.19879      338.42548      857.62427      2474.4465      4021.713       1.6844161    
    242000   292.62309      472.6339       335.81773      808.45163      2610.554       4001.1138      1.6930881    
    243000   294.36641      507.34072      337.81838      845.1591      -1903.598       4036.3241      1.6783187    
    244000   289.07055      472.33795      331.7408       804.07875      266.10212      4007.8184      1.6902558    
    245000   275.39312      520.3442       316.04441      836.38861     -5037.0994      4070.1024      1.6643901    
    246000   300.51999      495.62732      344.88031      840.50763      919.11101      4021.1578      1.6846487    
    247000   312.52023      488.02324      358.65192      846.67516      2061.4384      4035.2525      1.6787644    
    248000   326.97279      487.04468      375.23786      862.28254     -2857.591       4015.7982      1.6868971    
    249000   316.82664      471.14675      363.59401      834.74076      1163.6091      4046.1114      1.6742589    
    250000   319.59953      479.25019      366.77621      846.0264      -1911.9889      4009.6918      1.689466     
    250149   318.23872      493.48079      365.21453      858.69532      215.9843       4026.285       1.6825034    
Loop time of 14.2634 on 1 procs for 50000 steps with 386 atoms

Performance: 302.874 ns/day, 0.079 hours/ns, 3505.487 timesteps/s, 1.353 Matom-step/s
99.7% CPU use with 1 MPI tasks x 1 OpenMP threads

MPI task timing breakdown:
Section |  min time  |  avg time  |  max time  |%varavg| %total
---------------------------------------------------------------
Pair    | 7.9933     | 7.9933     | 7.9933     |   0.0 | 56.04
Bond    | 2.5826     | 2.5826     | 2.5826     |   0.0 | 18.11
Neigh   | 2.5955     | 2.5955     | 2.5955     |   0.0 | 18.20
Comm    | 0.30376    | 0.30376    | 0.30376    |   0.0 |  2.13
Output  | 0.29131    | 0.29131    | 0.29131    |   0.0 |  2.04
Modify  | 0.42023    | 0.42023    | 0.42023    |   0.0 |  2.95
Other   |            | 0.07662    |            |       |  0.54

Nlocal:            386 ave         386 max         386 min
Histogram: 1 0 0 0 0 0 0 0 0 0
Nghost:           2432 ave        2432 max        2432 min
Histogram: 1 0 0 0 0 0 0 0 0 0
Neighs:          25185 ave       25185 max       25185 min
Histogram: 1 0 0 0 0 0 0 0 0 0

Total # of neighbors = 25185
Ave neighs/atom = 65.246114
Ave special neighs/atom = 6.1761658
Neighbor list builds = 1009
Dangerous builds = 0
unfix integrate
unfix rho50k

# Compute initial state
fix 3 all box/relax  aniso 0.0
minimize ${etol} ${ftol} ${maxiter} ${maxeval}
minimize 0 ${ftol} ${maxiter} ${maxeval}
minimize 0 1e-10 ${maxiter} ${maxeval}
minimize 0 1e-10 100000 ${maxeval}
minimize 0 1e-10 100000 100000
Generated 6 of 6 mixed pair_coeff terms from arithmetic mixing rule
WARNING: Energy due to 3 extra global DOFs will be included in minimizer energies
 (src/min.cpp:222)
WARNING: Inconsistent image flags
For more information see https://docs.lammps.org/err0027 (src/domain.cpp:1052)
Per MPI rank memory allocation (min/avg/max) = 20.61 | 20.61 | 20.61 Mbytes
   Step          Temp          PotEng         KinEng         TotEng         Press          Volume        Density    
    250149   318.23872      493.48079      365.21453      858.69532      215.9843       4026.285       1.6825034    
    250424   318.23872      265.64045      365.21453      630.85499      3858.5624      4022.5988      1.6840452    
Loop time of 0.104945 on 1 procs for 275 steps with 386 atoms

100.0% CPU use with 1 MPI tasks x 1 OpenMP threads

Minimization stats:
  Stopping criterion = linesearch alpha is zero
  Energy initial, next-to-last, final = 
      493.480785426233   265.640453561534   265.640453561534
  Force two-norm initial, final = 802.63188 146.21541
  Force max component initial, final = 336.70098 18.184782
  Final line search alpha, max atom move = 3.3294516e-13 6.054535e-12
  Iterations, force evaluations = 275 315

MPI task timing breakdown:
Section |  min time  |  avg time  |  max time  |%varavg| %total
---------------------------------------------------------------
Pair    | 0.070438   | 0.070438   | 0.070438   |   0.0 | 67.12
Bond    | 0.01983    | 0.01983    | 0.01983    |   0.0 | 18.90
Neigh   | 0          | 0          | 0          |   0.0 |  0.00
Comm    | 0.0019643  | 0.0019643  | 0.0019643  |   0.0 |  1.87
Output  | 0.0018615  | 0.0018615  | 0.0018615  |   0.0 |  1.77
Modify  | 0          | 0          | 0          |   0.0 |  0.00
Other   |            | 0.01085    |            |       | 10.34

Nlocal:            386 ave         386 max         386 min
Histogram: 1 0 0 0 0 0 0 0 0 0
Nghost:           2444 ave        2444 max        2444 min
Histogram: 1 0 0 0 0 0 0 0 0 0
Neighs:          25206 ave       25206 max       25206 min
Histogram: 1 0 0 0 0 0 0 0 0 0

Total # of neighbors = 25206
Ave neighs/atom = 65.300518
Ave special neighs/atom = 6.1761658
Neighbor list builds = 0
Dangerous builds = 0

variable tmp equal pxx
variable pxx0 equal ${tmp}
variable pxx0 equal 3560.89850507567
variable tmp equal pyy
variable pyy0 equal ${tmp}
variable pyy0 equal 3740.26901488096
variable tmp equal pzz
variable pzz0 equal ${tmp}
variable pzz0 equal 4274.5196515337
variable tmp equal pyz
variable pyz0 equal ${tmp}
variable pyz0 equal 5184.98687078642
variable tmp equal pxz
variable pxz0 equal ${tmp}
variable pxz0 equal -1375.48362946277
variable tmp equal pxy
variable pxy0 equal ${tmp}
variable pxy0 equal 762.425608740613

variable tmp equal lx
variable lx0 equal ${tmp}
variable lx0 equal 16.8620016990074
variable tmp equal ly
variable ly0 equal ${tmp}
variable ly0 equal 13.5878790988403
variable tmp equal lz
variable lz0 equal ${tmp}
variable lz0 equal 17.5568223672146

# These formulas define the derivatives w.r.t. strain components
# Constants uses $, variables use v_
variable d1 equal -(v_pxx1-${pxx0})/(v_delta/v_len0)*${cfac}
variable d1 equal -(v_pxx1-3560.89850507567)/(v_delta/v_len0)*${cfac}
variable d1 equal -(v_pxx1-3560.89850507567)/(v_delta/v_len0)*0.0001
variable d2 equal -(v_pyy1-${pyy0})/(v_delta/v_len0)*${cfac}
variable d2 equal -(v_pyy1-3740.26901488096)/(v_delta/v_len0)*${cfac}
variable d2 equal -(v_pyy1-3740.26901488096)/(v_delta/v_len0)*0.0001
variable d3 equal -(v_pzz1-${pzz0})/(v_delta/v_len0)*${cfac}
variable d3 equal -(v_pzz1-4274.5196515337)/(v_delta/v_len0)*${cfac}
variable d3 equal -(v_pzz1-4274.5196515337)/(v_delta/v_len0)*0.0001
variable d4 equal -(v_pyz1-${pyz0})/(v_delta/v_len0)*${cfac}
variable d4 equal -(v_pyz1-5184.98687078642)/(v_delta/v_len0)*${cfac}
variable d4 equal -(v_pyz1-5184.98687078642)/(v_delta/v_len0)*0.0001
variable d5 equal -(v_pxz1-${pxz0})/(v_delta/v_len0)*${cfac}
variable d5 equal -(v_pxz1--1375.48362946277)/(v_delta/v_len0)*${cfac}
variable d5 equal -(v_pxz1--1375.48362946277)/(v_delta/v_len0)*0.0001
variable d6 equal -(v_pxy1-${pxy0})/(v_delta/v_len0)*${cfac}
variable d6 equal -(v_pxy1-762.425608740613)/(v_delta/v_len0)*${cfac}
variable d6 equal -(v_pxy1-762.425608740613)/(v_delta/v_len0)*0.0001

# displace_atoms all random ${atomjiggle} ${atomjiggle} ${atomjiggle} 87287 units box

# Write restart
unfix 3
write_restart restart_333U-50C-9-vasp.equil
System init for write_restart ...
Generated 6 of 6 mixed pair_coeff terms from arithmetic mixing rule

# uxx Perturbation

variable dir equal 1
include ./input/displace_333U-50C-9-vasp.mod
if "${dir} == 1" then    "variable len0 equal ${lx0}"
variable len0 equal ${lx0}
variable len0 equal 16.8620016990074
if "${dir} == 2" then    "variable len0 equal ${ly0}"
if "${dir} == 3" then    "variable len0 equal ${lz0}"
if "${dir} == 4" then    "variable len0 equal ${lz0}"
if "${dir} == 5" then    "variable len0 equal ${lz0}"
if "${dir} == 6" then    "variable len0 equal ${ly0}"

# Reset box and simulation parameters

clear
OMP_NUM_THREADS environment is not set. Defaulting to 1 thread.
  using 1 OpenMP thread(s) per MPI task
box tilt large

The 'box' command has been removed and will be ignored

read_restart restart_333U-50C-9-vasp.equil
Reading restart file ...
  restart file = 10 Sep 2025, LAMMPS = 10 Sep 2025
  restoring atom style full from restart
  triclinic box = (-0.12710585 -0.070568049 -0.10333018) to (16.734896 13.517311 17.453492) with tilt (-9.5496696 -1.0844358 0.0034657957)
WARNING: Triclinic box skew is large. LAMMPS will run inefficiently. (src/domain.cpp:221)
  1 by 1 by 1 MPI processor grid
  restoring pair style lj/cut from restart
  restoring bond style harmonic from restart
  restoring angle style hybrid from restart
  restoring dihedral style harmonic from restart
  386 atoms
  411 bonds
  781 angles
  987 dihedrals
Finding 1-2 1-3 1-4 neighbors ...
  special bond factors lj:    0        0        1       
  special bond factors coul:  0        0        1       
     4 = max # of 1-2 neighbors
    10 = max # of 1-3 neighbors
    14 = max # of special neighbors
  special bonds CPU = 0.000 seconds
  read_restart CPU = 0.002 seconds
include ./input/angles_333U-50C-9-vasp.mod
angle_style hybrid fourier cosine/periodic
angle_coeff 1 fourier 157.882480        0.343737        0.374972        0.281246
angle_coeff 2 fourier 221.735285        0.343737        0.374972        0.281246
angle_coeff 3 fourier 83.380072        0.343737        0.374972        0.281246
angle_coeff 4 fourier 58.020602        0.343737        0.374972        0.281246
angle_coeff 5 fourier 114.246973        0.343737        0.374972        0.281246
angle_coeff 6 fourier 32.417871        0.343737        0.374972        0.281246
angle_coeff 7 fourier 90.420412        0.343737        0.374972        0.281246
angle_coeff 8 fourier 75.498766        0.343737        0.374972        0.281246
angle_coeff 9 cosine/periodic 88.853997              -1               3

# Negative deformation

variable delta equal -${up}*${len0}
variable delta equal -0.02*${len0}
variable delta equal -0.02*16.8620016990074
variable deltaxy equal -${up}*xy
variable deltaxy equal -0.02*xy
variable deltaxz equal -${up}*xz
variable deltaxz equal -0.02*xz
variable deltayz equal -${up}*yz
variable deltayz equal -0.02*yz
if "${dir} == 1" then    "change_box all x delta 0 ${delta} xy delta ${deltaxy} xz delta ${deltaxz} remap units box"
change_box all x delta 0 ${delta} xy delta ${deltaxy} xz delta ${deltaxz} remap units box
change_box all x delta 0 -0.337240033980148 xy delta ${deltaxy} xz delta ${deltaxz} remap units box
change_box all x delta 0 -0.337240033980148 xy delta 0.190993391470703 xz delta ${deltaxz} remap units box
change_box all x delta 0 -0.337240033980148 xy delta 0.190993391470703 xz delta 0.0216887166622377 remap units box
Changing box ...
WARNING: Triclinic box skew is large. LAMMPS will run inefficiently. (src/domain.cpp:221)
  triclinic box = (-0.12710585 -0.070568049 -0.10333018) to (16.397656 13.517311 17.453492) with tilt (-9.5496696 -1.0844358 0.0034657957)
WARNING: Triclinic box skew is large. LAMMPS will run inefficiently. (src/domain.cpp:221)
  triclinic box = (-0.12710585 -0.070568049 -0.10333018) to (16.397656 13.517311 17.453492) with tilt (-9.3586762 -1.0844358 0.0034657957)
WARNING: Triclinic box skew is large. LAMMPS will run inefficiently. (src/domain.cpp:221)
  triclinic box = (-0.12710585 -0.070568049 -0.10333018) to (16.397656 13.517311 17.453492) with tilt (-9.3586762 -1.0627471 0.0034657957)
if "${dir} == 2" then    "change_box all y delta 0 ${delta} yz delta ${deltayz} remap units box"
if "${dir} == 3" then    "change_box all z delta 0 ${delta} remap units box"
if "${dir} == 4" then    "change_box all yz delta ${delta} remap units box"
if "${dir} == 5" then    "change_box all xz delta ${delta} remap units box"
if "${dir} == 6" then    "change_box all xy delta ${delta} remap units box"

# Relax atoms positions

minimize ${etol} ${ftol} ${maxiter} ${maxeval}
minimize 0 ${ftol} ${maxiter} ${maxeval}
minimize 0 1e-10 ${maxiter} ${maxeval}
minimize 0 1e-10 100000 ${maxeval}
minimize 0 1e-10 100000 100000
Generated 6 of 6 mixed pair_coeff terms from arithmetic mixing rule
Neighbor list info ...
  update: every = 1 steps, delay = 0 steps, check = yes
  max neighbors/atom: 2000, page size: 100000
  master list distance cutoff = 7
  ghost atom cutoff = 7
  binsize = 3.5, bins = 8 4 6
  1 neighbor lists, perpetual/occasional/extra = 1 0 0
  (1) pair lj/cut, perpetual
      attributes: half, newton on
      pair build: half/bin/newton/tri
      stencil: half/bin/3d/tri
      bin: standard
WARNING: Inconsistent image flags
For more information see https://docs.lammps.org/err0027 (src/domain.cpp:1052)
Per MPI rank memory allocation (min/avg/max) = 19.53 | 19.53 | 19.53 Mbytes
   Step          Temp          E_pair         E_mol          TotEng         Press     
    250424   318.23872     -409.81377      706.88855      662.28931      30971.173    
    250458   318.23872     -443.93769      593.5857       514.86254      8536.4869    
Loop time of 0.0347428 on 1 procs for 34 steps with 386 atoms

100.0% CPU use with 1 MPI tasks x 1 OpenMP threads

Minimization stats:
  Stopping criterion = linesearch alpha is zero
  Energy initial, next-to-last, final = 
      297.074779038829   149.648005011808   149.648005011808
  Force two-norm initial, final = 224.48244 19.235394
  Force max component initial, final = 22.892163 2.6915408
  Final line search alpha, max atom move = 3.0662093e-11 8.2528272e-11
  Iterations, force evaluations = 34 123

MPI task timing breakdown:
Section |  min time  |  avg time  |  max time  |%varavg| %total
---------------------------------------------------------------
Pair    | 0.026886   | 0.026886   | 0.026886   |   0.0 | 77.39
Bond    | 0.0065124  | 0.0065124  | 0.0065124  |   0.0 | 18.74
Neigh   | 0          | 0          | 0          |   0.0 |  0.00
Comm    | 0.00075555 | 0.00075555 | 0.00075555 |   0.0 |  2.17
Output  | 0          | 0          | 0          |   0.0 |  0.00
Modify  | 0          | 0          | 0          |   0.0 |  0.00
Other   |            | 0.0005888  |            |       |  1.69

Nlocal:            386 ave         386 max         386 min
Histogram: 1 0 0 0 0 0 0 0 0 0
Nghost:           2456 ave        2456 max        2456 min
Histogram: 1 0 0 0 0 0 0 0 0 0
Neighs:          25742 ave       25742 max       25742 min
Histogram: 1 0 0 0 0 0 0 0 0 0

Total # of neighbors = 25742
Ave neighs/atom = 66.689119
Ave special neighs/atom = 6.1761658
Neighbor list builds = 0
Dangerous builds = 0

# Obtain new stress tensor

variable tmp equal pxx
variable pxx1 equal ${tmp}
variable pxx1 equal 15229.2127016824
variable tmp equal pyy
variable pyy1 equal ${tmp}
variable pyy1 equal 8064.58867591657
variable tmp equal pzz
variable pzz1 equal ${tmp}
variable pzz1 equal 2315.65926832197
variable tmp equal pxy
variable pxy1 equal ${tmp}
variable pxy1 equal 2673.3667685125
variable tmp equal pxz
variable pxz1 equal ${tmp}
variable pxz1 equal -1061.34016193692
variable tmp equal pyz
variable pyz1 equal ${tmp}
variable pyz1 equal 4350.43184175247

# Compute elastic constant from pressure tensor

variable C1neg equal ${d1}
variable C1neg equal 58.3415709830337
variable C2neg equal ${d2}
variable C2neg equal 21.6215983051781
variable C3neg equal ${d3}
variable C3neg equal -9.79430191605865
variable C4neg equal ${d4}
variable C4neg equal -4.17277514516975
variable C5neg equal ${d5}
variable C5neg equal 1.57071733762925
variable C6neg equal ${d6}
variable C6neg equal 9.55470579885944

# Reset box and simulation parameters

clear
OMP_NUM_THREADS environment is not set. Defaulting to 1 thread.
  using 1 OpenMP thread(s) per MPI task
box tilt large

The 'box' command has been removed and will be ignored

read_restart restart_333U-50C-9-vasp.equil
Reading restart file ...
  restart file = 10 Sep 2025, LAMMPS = 10 Sep 2025
  restoring atom style full from restart
  triclinic box = (-0.12710585 -0.070568049 -0.10333018) to (16.734896 13.517311 17.453492) with tilt (-9.5496696 -1.0844358 0.0034657957)
WARNING: Triclinic box skew is large. LAMMPS will run inefficiently. (src/domain.cpp:221)
  1 by 1 by 1 MPI processor grid
  restoring pair style lj/cut from restart
  restoring bond style harmonic from restart
  restoring angle style hybrid from restart
  restoring dihedral style harmonic from restart
  386 atoms
  411 bonds
  781 angles
  987 dihedrals
Finding 1-2 1-3 1-4 neighbors ...
  special bond factors lj:    0        0        1       
  special bond factors coul:  0        0        1       
     4 = max # of 1-2 neighbors
    10 = max # of 1-3 neighbors
    14 = max # of special neighbors
  special bonds CPU = 0.000 seconds
  read_restart CPU = 0.002 seconds
include ./input/angles_333U-50C-9-vasp.mod
angle_style hybrid fourier cosine/periodic
angle_coeff 1 fourier 157.882480        0.343737        0.374972        0.281246
angle_coeff 2 fourier 221.735285        0.343737        0.374972        0.281246
angle_coeff 3 fourier 83.380072        0.343737        0.374972        0.281246
angle_coeff 4 fourier 58.020602        0.343737        0.374972        0.281246
angle_coeff 5 fourier 114.246973        0.343737        0.374972        0.281246
angle_coeff 6 fourier 32.417871        0.343737        0.374972        0.281246
angle_coeff 7 fourier 90.420412        0.343737        0.374972        0.281246
angle_coeff 8 fourier 75.498766        0.343737        0.374972        0.281246
angle_coeff 9 cosine/periodic 88.853997              -1               3

# Positive deformation

variable delta equal ${up}*${len0}
variable delta equal 0.02*${len0}
variable delta equal 0.02*16.8620016990074
variable deltaxy equal ${up}*xy
variable deltaxy equal 0.02*xy
variable deltaxz equal ${up}*xz
variable deltaxz equal 0.02*xz
variable deltayz equal ${up}*yz
variable deltayz equal 0.02*yz
if "${dir} == 1" then    "change_box all x delta 0 ${delta} xy delta ${deltaxy} xz delta ${deltaxz} remap units box"
change_box all x delta 0 ${delta} xy delta ${deltaxy} xz delta ${deltaxz} remap units box
change_box all x delta 0 0.337240033980148 xy delta ${deltaxy} xz delta ${deltaxz} remap units box
change_box all x delta 0 0.337240033980148 xy delta -0.190993391470703 xz delta ${deltaxz} remap units box
change_box all x delta 0 0.337240033980148 xy delta -0.190993391470703 xz delta -0.0216887166622377 remap units box
Changing box ...
WARNING: Triclinic box skew is large. LAMMPS will run inefficiently. (src/domain.cpp:221)
  triclinic box = (-0.12710585 -0.070568049 -0.10333018) to (17.072136 13.517311 17.453492) with tilt (-9.5496696 -1.0844358 0.0034657957)
WARNING: Triclinic box skew is large. LAMMPS will run inefficiently. (src/domain.cpp:221)
  triclinic box = (-0.12710585 -0.070568049 -0.10333018) to (17.072136 13.517311 17.453492) with tilt (-9.740663 -1.0844358 0.0034657957)
WARNING: Triclinic box skew is large. LAMMPS will run inefficiently. (src/domain.cpp:221)
  triclinic box = (-0.12710585 -0.070568049 -0.10333018) to (17.072136 13.517311 17.453492) with tilt (-9.740663 -1.1061245 0.0034657957)
if "${dir} == 2" then    "change_box all y delta 0 ${delta} yz delta ${deltayz} remap units box"
if "${dir} == 3" then    "change_box all z delta 0 ${delta} remap units box"
if "${dir} == 4" then    "change_box all yz delta ${delta} remap units box"
if "${dir} == 5" then    "change_box all xz delta ${delta} remap units box"
if "${dir} == 6" then    "change_box all xy delta ${delta} remap units box"

# Relax atoms positions

minimize ${etol} ${ftol} ${maxiter} ${maxeval}
minimize 0 ${ftol} ${maxiter} ${maxeval}
minimize 0 1e-10 ${maxiter} ${maxeval}
minimize 0 1e-10 100000 ${maxeval}
minimize 0 1e-10 100000 100000
Generated 6 of 6 mixed pair_coeff terms from arithmetic mixing rule
Neighbor list info ...
  update: every = 1 steps, delay = 0 steps, check = yes
  max neighbors/atom: 2000, page size: 100000
  master list distance cutoff = 7
  ghost atom cutoff = 7
  binsize = 3.5, bins = 9 4 6
  1 neighbor lists, perpetual/occasional/extra = 1 0 0
  (1) pair lj/cut, perpetual
      attributes: half, newton on
      pair build: half/bin/newton/tri
      stencil: half/bin/3d/tri
      bin: standard
WARNING: Inconsistent image flags
For more information see https://docs.lammps.org/err0027 (src/domain.cpp:1052)
Per MPI rank memory allocation (min/avg/max) = 19.53 | 19.53 | 19.53 Mbytes
   Step          Temp          E_pair         E_mol          TotEng         Press     
    250424   318.23872     -457.33737      754.32065      662.19782     -22288.277    
    250463   318.23872     -482.46375      636.03176      518.78255     -8865.7528    
Loop time of 0.0353172 on 1 procs for 39 steps with 386 atoms

100.0% CPU use with 1 MPI tasks x 1 OpenMP threads

Minimization stats:
  Stopping criterion = linesearch alpha is zero
  Energy initial, next-to-last, final = 
      296.983285931568   153.568016694479   153.568016694479
  Force two-norm initial, final = 231.54278 14.231501
  Force max component initial, final = 23.078986 1.6261522
  Final line search alpha, max atom move = 5.0415537e-11 8.1983337e-11
  Iterations, force evaluations = 39 133

MPI task timing breakdown:
Section |  min time  |  avg time  |  max time  |%varavg| %total
---------------------------------------------------------------
Pair    | 0.026885   | 0.026885   | 0.026885   |   0.0 | 76.12
Bond    | 0.0069952  | 0.0069952  | 0.0069952  |   0.0 | 19.81
Neigh   | 0          | 0          | 0          |   0.0 |  0.00
Comm    | 0.00079994 | 0.00079994 | 0.00079994 |   0.0 |  2.27
Output  | 0          | 0          | 0          |   0.0 |  0.00
Modify  | 0          | 0          | 0          |   0.0 |  0.00
Other   |            | 0.0006373  |            |       |  1.80

Nlocal:            386 ave         386 max         386 min
Histogram: 1 0 0 0 0 0 0 0 0 0
Nghost:           2418 ave        2418 max        2418 min
Histogram: 1 0 0 0 0 0 0 0 0 0
Neighs:          24722 ave       24722 max       24722 min
Histogram: 1 0 0 0 0 0 0 0 0 0

Total # of neighbors = 24722
Ave neighs/atom = 64.046632
Ave special neighs/atom = 6.1761658
Neighbor list builds = 0
Dangerous builds = 0

# Obtain new stress tensor

variable tmp equal pe
variable e1 equal ${tmp}
variable e1 equal 153.568016694479
variable tmp equal press
variable p1 equal ${tmp}
variable p1 equal -8865.75281868433
variable tmp equal pxx
variable pxx1 equal ${tmp}
variable pxx1 equal -10841.5417514223
variable tmp equal pyy
variable pyy1 equal ${tmp}
variable pyy1 equal -5473.93068214093
variable tmp equal pzz
variable pzz1 equal ${tmp}
variable pzz1 equal -10281.7860224897
variable tmp equal pxy
variable pxy1 equal ${tmp}
variable pxy1 equal 342.862569141127
variable tmp equal pxz
variable pxz1 equal ${tmp}
variable pxz1 equal 309.385012942012
variable tmp equal pyz
variable pyz1 equal ${tmp}
variable pyz1 equal 5049.26005095264

# Compute elastic constant from pressure tensor

variable C1pos equal ${d1}
variable C1pos equal 72.0122012824899
variable C2pos equal ${d2}
variable C2pos equal 46.0709984851094
variable C3pos equal ${d3}
variable C3pos equal 72.781528370117
variable C4pos equal ${d4}
variable C4pos equal 0.678634099168898
variable C5pos equal ${d5}
variable C5pos equal -8.42434321202391
variable C6pos equal ${d6}
variable C6pos equal 2.09781519799743

# Combine positive and negative

variable C1${dir} equal 0.5*(${C1neg}+${C1pos})
variable C11 equal 0.5*(${C1neg}+${C1pos})
variable C11 equal 0.5*(58.3415709830337+${C1pos})
variable C11 equal 0.5*(58.3415709830337+72.0122012824899)
variable C2${dir} equal 0.5*(${C2neg}+${C2pos})
variable C21 equal 0.5*(${C2neg}+${C2pos})
variable C21 equal 0.5*(21.6215983051781+${C2pos})
variable C21 equal 0.5*(21.6215983051781+46.0709984851094)
variable C3${dir} equal 0.5*(${C3neg}+${C3pos})
variable C31 equal 0.5*(${C3neg}+${C3pos})
variable C31 equal 0.5*(-9.79430191605865+${C3pos})
variable C31 equal 0.5*(-9.79430191605865+72.781528370117)
variable C4${dir} equal 0.5*(${C4neg}+${C4pos})
variable C41 equal 0.5*(${C4neg}+${C4pos})
variable C41 equal 0.5*(-4.17277514516975+${C4pos})
variable C41 equal 0.5*(-4.17277514516975+0.678634099168898)
variable C5${dir} equal 0.5*(${C5neg}+${C5pos})
variable C51 equal 0.5*(${C5neg}+${C5pos})
variable C51 equal 0.5*(1.57071733762925+${C5pos})
variable C51 equal 0.5*(1.57071733762925+-8.42434321202391)
variable C6${dir} equal 0.5*(${C6neg}+${C6pos})
variable C61 equal 0.5*(${C6neg}+${C6pos})
variable C61 equal 0.5*(9.55470579885944+${C6pos})
variable C61 equal 0.5*(9.55470579885944+2.09781519799743)

# Delete dir to make sure it is not reused

variable dir delete

# uyy Perturbation

variable dir equal 2
include ./input/displace_333U-50C-9-vasp.mod
if "${dir} == 1" then    "variable len0 equal ${lx0}"
if "${dir} == 2" then    "variable len0 equal ${ly0}"
variable len0 equal ${ly0}
variable len0 equal 13.5878790988403
if "${dir} == 3" then    "variable len0 equal ${lz0}"
if "${dir} == 4" then    "variable len0 equal ${lz0}"
if "${dir} == 5" then    "variable len0 equal ${lz0}"
if "${dir} == 6" then    "variable len0 equal ${ly0}"

# Reset box and simulation parameters

clear
OMP_NUM_THREADS environment is not set. Defaulting to 1 thread.
  using 1 OpenMP thread(s) per MPI task
box tilt large

The 'box' command has been removed and will be ignored

read_restart restart_333U-50C-9-vasp.equil
Reading restart file ...
  restart file = 10 Sep 2025, LAMMPS = 10 Sep 2025
  restoring atom style full from restart
  triclinic box = (-0.12710585 -0.070568049 -0.10333018) to (16.734896 13.517311 17.453492) with tilt (-9.5496696 -1.0844358 0.0034657957)
WARNING: Triclinic box skew is large. LAMMPS will run inefficiently. (src/domain.cpp:221)
  1 by 1 by 1 MPI processor grid
  restoring pair style lj/cut from restart
  restoring bond style harmonic from restart
  restoring angle style hybrid from restart
  restoring dihedral style harmonic from restart
  386 atoms
  411 bonds
  781 angles
  987 dihedrals
Finding 1-2 1-3 1-4 neighbors ...
  special bond factors lj:    0        0        1       
  special bond factors coul:  0        0        1       
     4 = max # of 1-2 neighbors
    10 = max # of 1-3 neighbors
    14 = max # of special neighbors
  special bonds CPU = 0.000 seconds
  read_restart CPU = 0.001 seconds
include ./input/angles_333U-50C-9-vasp.mod
angle_style hybrid fourier cosine/periodic
angle_coeff 1 fourier 157.882480        0.343737        0.374972        0.281246
angle_coeff 2 fourier 221.735285        0.343737        0.374972        0.281246
angle_coeff 3 fourier 83.380072        0.343737        0.374972        0.281246
angle_coeff 4 fourier 58.020602        0.343737        0.374972        0.281246
angle_coeff 5 fourier 114.246973        0.343737        0.374972        0.281246
angle_coeff 6 fourier 32.417871        0.343737        0.374972        0.281246
angle_coeff 7 fourier 90.420412        0.343737        0.374972        0.281246
angle_coeff 8 fourier 75.498766        0.343737        0.374972        0.281246
angle_coeff 9 cosine/periodic 88.853997              -1               3

# Negative deformation

variable delta equal -${up}*${len0}
variable delta equal -0.02*${len0}
variable delta equal -0.02*13.5878790988403
variable deltaxy equal -${up}*xy
variable deltaxy equal -0.02*xy
variable deltaxz equal -${up}*xz
variable deltaxz equal -0.02*xz
variable deltayz equal -${up}*yz
variable deltayz equal -0.02*yz
if "${dir} == 1" then    "change_box all x delta 0 ${delta} xy delta ${deltaxy} xz delta ${deltaxz} remap units box"
if "${dir} == 2" then    "change_box all y delta 0 ${delta} yz delta ${deltayz} remap units box"
change_box all y delta 0 ${delta} yz delta ${deltayz} remap units box
change_box all y delta 0 -0.271757581976806 yz delta ${deltayz} remap units box
change_box all y delta 0 -0.271757581976806 yz delta -6.93159137162095e-05 remap units box
Changing box ...
WARNING: Triclinic box skew is large. LAMMPS will run inefficiently. (src/domain.cpp:221)
  triclinic box = (-0.12710585 -0.070568049 -0.10333018) to (16.734896 13.245553 17.453492) with tilt (-9.5496696 -1.0844358 0.0034657957)
WARNING: Triclinic box skew is large. LAMMPS will run inefficiently. (src/domain.cpp:221)
  triclinic box = (-0.12710585 -0.070568049 -0.10333018) to (16.734896 13.245553 17.453492) with tilt (-9.5496696 -1.0844358 0.0033964798)
if "${dir} == 3" then    "change_box all z delta 0 ${delta} remap units box"
if "${dir} == 4" then    "change_box all yz delta ${delta} remap units box"
if "${dir} == 5" then    "change_box all xz delta ${delta} remap units box"
if "${dir} == 6" then    "change_box all xy delta ${delta} remap units box"

# Relax atoms positions

minimize ${etol} ${ftol} ${maxiter} ${maxeval}
minimize 0 ${ftol} ${maxiter} ${maxeval}
minimize 0 1e-10 ${maxiter} ${maxeval}
minimize 0 1e-10 100000 ${maxeval}
minimize 0 1e-10 100000 100000
Generated 6 of 6 mixed pair_coeff terms from arithmetic mixing rule
Neighbor list info ...
  update: every = 1 steps, delay = 0 steps, check = yes
  max neighbors/atom: 2000, page size: 100000
  master list distance cutoff = 7
  ghost atom cutoff = 7
  binsize = 3.5, bins = 8 4 6
  1 neighbor lists, perpetual/occasional/extra = 1 0 0
  (1) pair lj/cut, perpetual
      attributes: half, newton on
      pair build: half/bin/newton/tri
      stencil: half/bin/3d/tri
      bin: standard
WARNING: Inconsistent image flags
For more information see https://docs.lammps.org/err0027 (src/domain.cpp:1052)
Per MPI rank memory allocation (min/avg/max) = 19.53 | 19.53 | 19.53 Mbytes
   Step          Temp          E_pair         E_mol          TotEng         Press     
    250424   318.23872     -406.69407      705.62406      664.14452      31505.558    
    250464   318.23872     -442.08958      590.26024      513.38519      8945.0973    
Loop time of 0.0392928 on 1 procs for 40 steps with 386 atoms

100.0% CPU use with 1 MPI tasks x 1 OpenMP threads

Minimization stats:
  Stopping criterion = linesearch alpha is zero
  Energy initial, next-to-last, final = 
      298.929991643306   148.170657585756   148.170657585756
  Force two-norm initial, final = 230.42812 14.493754
  Force max component initial, final = 26.013686 1.8276571
  Final line search alpha, max atom move = 4.8950058e-11 8.9463921e-11
  Iterations, force evaluations = 40 135

MPI task timing breakdown:
Section |  min time  |  avg time  |  max time  |%varavg| %total
---------------------------------------------------------------
Pair    | 0.03049    | 0.03049    | 0.03049    |   0.0 | 77.60
Bond    | 0.0072464  | 0.0072464  | 0.0072464  |   0.0 | 18.44
Neigh   | 0          | 0          | 0          |   0.0 |  0.00
Comm    | 0.00089537 | 0.00089537 | 0.00089537 |   0.0 |  2.28
Output  | 0          | 0          | 0          |   0.0 |  0.00
Modify  | 0          | 0          | 0          |   0.0 |  0.00
Other   |            | 0.0006613  |            |       |  1.68

Nlocal:            386 ave         386 max         386 min
Histogram: 1 0 0 0 0 0 0 0 0 0
Nghost:           2500 ave        2500 max        2500 min
Histogram: 1 0 0 0 0 0 0 0 0 0
Neighs:          25767 ave       25767 max       25767 min
Histogram: 1 0 0 0 0 0 0 0 0 0

Total # of neighbors = 25767
Ave neighs/atom = 66.753886
Ave special neighs/atom = 6.1761658
Neighbor list builds = 0
Dangerous builds = 0

# Obtain new stress tensor

variable tmp equal pxx
variable pxx1 equal ${tmp}
variable pxx1 equal 8090.03083274753
variable tmp equal pyy
variable pyy1 equal ${tmp}
variable pyy1 equal 15951.9372343058
variable tmp equal pzz
variable pzz1 equal ${tmp}
variable pzz1 equal 2793.32398059767
variable tmp equal pxy
variable pxy1 equal ${tmp}
variable pxy1 equal 3560.00894510626
variable tmp equal pxz
variable pxz1 equal ${tmp}
variable pxz1 equal 479.556559007126
variable tmp equal pyz
variable pyz1 equal ${tmp}
variable pyz1 equal 5076.8242433711

# Compute elastic constant from pressure tensor

variable C1neg equal ${d1}
variable C1neg equal 22.6456616383593
variable C2neg equal ${d2}
variable C2neg equal 61.0583410971242
variable C3neg equal ${d3}
variable C3neg equal -7.40597835468015
variable C4neg equal ${d4}
variable C4neg equal -0.540813137076598
variable C5neg equal ${d5}
variable C5neg equal 9.27520094234948
variable C6neg equal ${d6}
variable C6neg equal 13.9879166818282

# Reset box and simulation parameters

clear
OMP_NUM_THREADS environment is not set. Defaulting to 1 thread.
  using 1 OpenMP thread(s) per MPI task
box tilt large

The 'box' command has been removed and will be ignored

read_restart restart_333U-50C-9-vasp.equil
Reading restart file ...
  restart file = 10 Sep 2025, LAMMPS = 10 Sep 2025
  restoring atom style full from restart
  triclinic box = (-0.12710585 -0.070568049 -0.10333018) to (16.734896 13.517311 17.453492) with tilt (-9.5496696 -1.0844358 0.0034657957)
WARNING: Triclinic box skew is large. LAMMPS will run inefficiently. (src/domain.cpp:221)
  1 by 1 by 1 MPI processor grid
  restoring pair style lj/cut from restart
  restoring bond style harmonic from restart
  restoring angle style hybrid from restart
  restoring dihedral style harmonic from restart
  386 atoms
  411 bonds
  781 angles
  987 dihedrals
Finding 1-2 1-3 1-4 neighbors ...
  special bond factors lj:    0        0        1       
  special bond factors coul:  0        0        1       
     4 = max # of 1-2 neighbors
    10 = max # of 1-3 neighbors
    14 = max # of special neighbors
  special bonds CPU = 0.000 seconds
  read_restart CPU = 0.001 seconds
include ./input/angles_333U-50C-9-vasp.mod
angle_style hybrid fourier cosine/periodic
angle_coeff 1 fourier 157.882480        0.343737        0.374972        0.281246
angle_coeff 2 fourier 221.735285        0.343737        0.374972        0.281246
angle_coeff 3 fourier 83.380072        0.343737        0.374972        0.281246
angle_coeff 4 fourier 58.020602        0.343737        0.374972        0.281246
angle_coeff 5 fourier 114.246973        0.343737        0.374972        0.281246
angle_coeff 6 fourier 32.417871        0.343737        0.374972        0.281246
angle_coeff 7 fourier 90.420412        0.343737        0.374972        0.281246
angle_coeff 8 fourier 75.498766        0.343737        0.374972        0.281246
angle_coeff 9 cosine/periodic 88.853997              -1               3

# Positive deformation

variable delta equal ${up}*${len0}
variable delta equal 0.02*${len0}
variable delta equal 0.02*13.5878790988403
variable deltaxy equal ${up}*xy
variable deltaxy equal 0.02*xy
variable deltaxz equal ${up}*xz
variable deltaxz equal 0.02*xz
variable deltayz equal ${up}*yz
variable deltayz equal 0.02*yz
if "${dir} == 1" then    "change_box all x delta 0 ${delta} xy delta ${deltaxy} xz delta ${deltaxz} remap units box"
if "${dir} == 2" then    "change_box all y delta 0 ${delta} yz delta ${deltayz} remap units box"
change_box all y delta 0 ${delta} yz delta ${deltayz} remap units box
change_box all y delta 0 0.271757581976806 yz delta ${deltayz} remap units box
change_box all y delta 0 0.271757581976806 yz delta 6.93159137162095e-05 remap units box
Changing box ...
WARNING: Triclinic box skew is large. LAMMPS will run inefficiently. (src/domain.cpp:221)
  triclinic box = (-0.12710585 -0.070568049 -0.10333018) to (16.734896 13.789069 17.453492) with tilt (-9.5496696 -1.0844358 0.0034657957)
WARNING: Triclinic box skew is large. LAMMPS will run inefficiently. (src/domain.cpp:221)
  triclinic box = (-0.12710585 -0.070568049 -0.10333018) to (16.734896 13.789069 17.453492) with tilt (-9.5496696 -1.0844358 0.0035351116)
if "${dir} == 3" then    "change_box all z delta 0 ${delta} remap units box"
if "${dir} == 4" then    "change_box all yz delta ${delta} remap units box"
if "${dir} == 5" then    "change_box all xz delta ${delta} remap units box"
if "${dir} == 6" then    "change_box all xy delta ${delta} remap units box"

# Relax atoms positions

minimize ${etol} ${ftol} ${maxiter} ${maxeval}
minimize 0 ${ftol} ${maxiter} ${maxeval}
minimize 0 1e-10 ${maxiter} ${maxeval}
minimize 0 1e-10 100000 ${maxeval}
minimize 0 1e-10 100000 100000
Generated 6 of 6 mixed pair_coeff terms from arithmetic mixing rule
Neighbor list info ...
  update: every = 1 steps, delay = 0 steps, check = yes
  max neighbors/atom: 2000, page size: 100000
  master list distance cutoff = 7
  ghost atom cutoff = 7
  binsize = 3.5, bins = 8 4 6
  1 neighbor lists, perpetual/occasional/extra = 1 0 0
  (1) pair lj/cut, perpetual
      attributes: half, newton on
      pair build: half/bin/newton/tri
      stencil: half/bin/3d/tri
      bin: standard
WARNING: Inconsistent image flags
For more information see https://docs.lammps.org/err0027 (src/domain.cpp:1052)
Per MPI rank memory allocation (min/avg/max) = 19.53 | 19.53 | 19.53 Mbytes
   Step          Temp          E_pair         E_mol          TotEng         Press     
    250424   318.23872     -458.10217      757.28616      664.39853     -22733.485    
    250458   318.23872     -486.57345      643.3395       521.98058     -10186.998    
Loop time of 0.034677 on 1 procs for 34 steps with 386 atoms

100.0% CPU use with 1 MPI tasks x 1 OpenMP threads

Minimization stats:
  Stopping criterion = linesearch alpha is zero
  Energy initial, next-to-last, final = 
      299.183991875564   156.766050667018   156.766050667018
  Force two-norm initial, final = 232.14001 17.265846
  Force max component initial, final = 25.498644 2.9140109
  Final line search alpha, max atom move = 3.3986658e-11 9.9037492e-11
  Iterations, force evaluations = 34 123

MPI task timing breakdown:
Section |  min time  |  avg time  |  max time  |%varavg| %total
---------------------------------------------------------------
Pair    | 0.026844   | 0.026844   | 0.026844   |   0.0 | 77.41
Bond    | 0.0064599  | 0.0064599  | 0.0064599  |   0.0 | 18.63
Neigh   | 0          | 0          | 0          |   0.0 |  0.00
Comm    | 0.00077849 | 0.00077849 | 0.00077849 |   0.0 |  2.24
Output  | 0          | 0          | 0          |   0.0 |  0.00
Modify  | 0          | 0          | 0          |   0.0 |  0.00
Other   |            | 0.0005943  |            |       |  1.71

Nlocal:            386 ave         386 max         386 min
Histogram: 1 0 0 0 0 0 0 0 0 0
Nghost:           2406 ave        2406 max        2406 min
Histogram: 1 0 0 0 0 0 0 0 0 0
Neighs:          24724 ave       24724 max       24724 min
Histogram: 1 0 0 0 0 0 0 0 0 0

Total # of neighbors = 24724
Ave neighs/atom = 64.051813
Ave special neighs/atom = 6.1761658
Neighbor list builds = 0
Dangerous builds = 0

# Obtain new stress tensor

variable tmp equal pe
variable e1 equal ${tmp}
variable e1 equal 156.766050667018
variable tmp equal press
variable p1 equal ${tmp}
variable p1 equal -10186.9983554281
variable tmp equal pxx
variable pxx1 equal ${tmp}
variable pxx1 equal -5413.81299146949
variable tmp equal pyy
variable pyy1 equal ${tmp}
variable pyy1 equal -13897.1310594364
variable tmp equal pzz
variable pzz1 equal ${tmp}
variable pzz1 equal -11250.0510153785
variable tmp equal pxy
variable pxy1 equal ${tmp}
variable pxy1 equal -799.423722571783
variable tmp equal pxz
variable pxz1 equal ${tmp}
variable pxz1 equal -826.979549107349
variable tmp equal pyz
variable pyz1 equal ${tmp}
variable pyz1 equal 4742.09808108491

# Compute elastic constant from pressure tensor

variable C1pos equal ${d1}
variable C1pos equal 44.8735574827258
variable C2pos equal ${d2}
variable C2pos equal 88.1870003715868
variable C3pos equal ${d3}
variable C3pos equal 77.622853334561
variable C4pos equal ${d4}
variable C4pos equal 2.21444394850755
variable C5pos equal ${d5}
variable C5pos equal -2.74252040177711
variable C6pos equal ${d6}
variable C6pos equal 7.80924665656198

# Combine positive and negative

variable C1${dir} equal 0.5*(${C1neg}+${C1pos})
variable C12 equal 0.5*(${C1neg}+${C1pos})
variable C12 equal 0.5*(22.6456616383593+${C1pos})
variable C12 equal 0.5*(22.6456616383593+44.8735574827258)
variable C2${dir} equal 0.5*(${C2neg}+${C2pos})
variable C22 equal 0.5*(${C2neg}+${C2pos})
variable C22 equal 0.5*(61.0583410971242+${C2pos})
variable C22 equal 0.5*(61.0583410971242+88.1870003715868)
variable C3${dir} equal 0.5*(${C3neg}+${C3pos})
variable C32 equal 0.5*(${C3neg}+${C3pos})
variable C32 equal 0.5*(-7.40597835468015+${C3pos})
variable C32 equal 0.5*(-7.40597835468015+77.622853334561)
variable C4${dir} equal 0.5*(${C4neg}+${C4pos})
variable C42 equal 0.5*(${C4neg}+${C4pos})
variable C42 equal 0.5*(-0.540813137076598+${C4pos})
variable C42 equal 0.5*(-0.540813137076598+2.21444394850755)
variable C5${dir} equal 0.5*(${C5neg}+${C5pos})
variable C52 equal 0.5*(${C5neg}+${C5pos})
variable C52 equal 0.5*(9.27520094234948+${C5pos})
variable C52 equal 0.5*(9.27520094234948+-2.74252040177711)
variable C6${dir} equal 0.5*(${C6neg}+${C6pos})
variable C62 equal 0.5*(${C6neg}+${C6pos})
variable C62 equal 0.5*(13.9879166818282+${C6pos})
variable C62 equal 0.5*(13.9879166818282+7.80924665656198)

# Delete dir to make sure it is not reused

variable dir delete

# uzz Perturbation

variable dir equal 3
include ./input/displace_333U-50C-9-vasp.mod
if "${dir} == 1" then    "variable len0 equal ${lx0}"
if "${dir} == 2" then    "variable len0 equal ${ly0}"
if "${dir} == 3" then    "variable len0 equal ${lz0}"
variable len0 equal ${lz0}
variable len0 equal 17.5568223672146
if "${dir} == 4" then    "variable len0 equal ${lz0}"
if "${dir} == 5" then    "variable len0 equal ${lz0}"
if "${dir} == 6" then    "variable len0 equal ${ly0}"

# Reset box and simulation parameters

clear
OMP_NUM_THREADS environment is not set. Defaulting to 1 thread.
  using 1 OpenMP thread(s) per MPI task
box tilt large

The 'box' command has been removed and will be ignored

read_restart restart_333U-50C-9-vasp.equil
Reading restart file ...
  restart file = 10 Sep 2025, LAMMPS = 10 Sep 2025
  restoring atom style full from restart
  triclinic box = (-0.12710585 -0.070568049 -0.10333018) to (16.734896 13.517311 17.453492) with tilt (-9.5496696 -1.0844358 0.0034657957)
WARNING: Triclinic box skew is large. LAMMPS will run inefficiently. (src/domain.cpp:221)
  1 by 1 by 1 MPI processor grid
  restoring pair style lj/cut from restart
  restoring bond style harmonic from restart
  restoring angle style hybrid from restart
  restoring dihedral style harmonic from restart
  386 atoms
  411 bonds
  781 angles
  987 dihedrals
Finding 1-2 1-3 1-4 neighbors ...
  special bond factors lj:    0        0        1       
  special bond factors coul:  0        0        1       
     4 = max # of 1-2 neighbors
    10 = max # of 1-3 neighbors
    14 = max # of special neighbors
  special bonds CPU = 0.000 seconds
  read_restart CPU = 0.001 seconds
include ./input/angles_333U-50C-9-vasp.mod
angle_style hybrid fourier cosine/periodic
angle_coeff 1 fourier 157.882480        0.343737        0.374972        0.281246
angle_coeff 2 fourier 221.735285        0.343737        0.374972        0.281246
angle_coeff 3 fourier 83.380072        0.343737        0.374972        0.281246
angle_coeff 4 fourier 58.020602        0.343737        0.374972        0.281246
angle_coeff 5 fourier 114.246973        0.343737        0.374972        0.281246
angle_coeff 6 fourier 32.417871        0.343737        0.374972        0.281246
angle_coeff 7 fourier 90.420412        0.343737        0.374972        0.281246
angle_coeff 8 fourier 75.498766        0.343737        0.374972        0.281246
angle_coeff 9 cosine/periodic 88.853997              -1               3

# Negative deformation

variable delta equal -${up}*${len0}
variable delta equal -0.02*${len0}
variable delta equal -0.02*17.5568223672146
variable deltaxy equal -${up}*xy
variable deltaxy equal -0.02*xy
variable deltaxz equal -${up}*xz
variable deltaxz equal -0.02*xz
variable deltayz equal -${up}*yz
variable deltayz equal -0.02*yz
if "${dir} == 1" then    "change_box all x delta 0 ${delta} xy delta ${deltaxy} xz delta ${deltaxz} remap units box"
if "${dir} == 2" then    "change_box all y delta 0 ${delta} yz delta ${deltayz} remap units box"
if "${dir} == 3" then    "change_box all z delta 0 ${delta} remap units box"
change_box all z delta 0 ${delta} remap units box
change_box all z delta 0 -0.351136447344292 remap units box
Changing box ...
WARNING: Triclinic box skew is large. LAMMPS will run inefficiently. (src/domain.cpp:221)
  triclinic box = (-0.12710585 -0.070568049 -0.10333018) to (16.734896 13.517311 17.102356) with tilt (-9.5496696 -1.0844358 0.0034657957)
if "${dir} == 4" then    "change_box all yz delta ${delta} remap units box"
if "${dir} == 5" then    "change_box all xz delta ${delta} remap units box"
if "${dir} == 6" then    "change_box all xy delta ${delta} remap units box"

# Relax atoms positions

minimize ${etol} ${ftol} ${maxiter} ${maxeval}
minimize 0 ${ftol} ${maxiter} ${maxeval}
minimize 0 1e-10 ${maxiter} ${maxeval}
minimize 0 1e-10 100000 ${maxeval}
minimize 0 1e-10 100000 100000
Generated 6 of 6 mixed pair_coeff terms from arithmetic mixing rule
Neighbor list info ...
  update: every = 1 steps, delay = 0 steps, check = yes
  max neighbors/atom: 2000, page size: 100000
  master list distance cutoff = 7
  ghost atom cutoff = 7
  binsize = 3.5, bins = 8 4 5
  1 neighbor lists, perpetual/occasional/extra = 1 0 0
  (1) pair lj/cut, perpetual
      attributes: half, newton on
      pair build: half/bin/newton/tri
      stencil: half/bin/3d/tri
      bin: standard
WARNING: Inconsistent image flags
For more information see https://docs.lammps.org/err0027 (src/domain.cpp:1052)
Per MPI rank memory allocation (min/avg/max) = 19.53 | 19.53 | 19.53 Mbytes
   Step          Temp          E_pair         E_mol          TotEng         Press     
    250424   318.23872     -406.62494      705.81104      664.40063      31958.555    
    250463   318.23872     -443.31298      583.88518      505.78674      8881.5674    
Loop time of 0.0396277 on 1 procs for 39 steps with 386 atoms

100.0% CPU use with 1 MPI tasks x 1 OpenMP threads

Minimization stats:
  Stopping criterion = linesearch alpha is zero
  Energy initial, next-to-last, final = 
      299.186093754293   140.572203781598   140.572203781598
  Force two-norm initial, final = 234.85908 15.21497
  Force max component initial, final = 23.609875 2.0540211
  Final line search alpha, max atom move = 3.8283447e-11 7.8635008e-11
  Iterations, force evaluations = 39 133

MPI task timing breakdown:
Section |  min time  |  avg time  |  max time  |%varavg| %total
---------------------------------------------------------------
Pair    | 0.031009   | 0.031009   | 0.031009   |   0.0 | 78.25
Bond    | 0.0071084  | 0.0071084  | 0.0071084  |   0.0 | 17.94
Neigh   | 0          | 0          | 0          |   0.0 |  0.00
Comm    | 0.00085664 | 0.00085664 | 0.00085664 |   0.0 |  2.16
Output  | 0          | 0          | 0          |   0.0 |  0.00
Modify  | 0          | 0          | 0          |   0.0 |  0.00
Other   |            | 0.0006533  |            |       |  1.65

Nlocal:            386 ave         386 max         386 min
Histogram: 1 0 0 0 0 0 0 0 0 0
Nghost:           2474 ave        2474 max        2474 min
Histogram: 1 0 0 0 0 0 0 0 0 0
Neighs:          25753 ave       25753 max       25753 min
Histogram: 1 0 0 0 0 0 0 0 0 0

Total # of neighbors = 25753
Ave neighs/atom = 66.717617
Ave special neighs/atom = 6.1761658
Neighbor list builds = 0
Dangerous builds = 0

# Obtain new stress tensor

variable tmp equal pxx
variable pxx1 equal ${tmp}
variable pxx1 equal 7923.5375074745
variable tmp equal pyy
variable pyy1 equal ${tmp}
variable pyy1 equal 8287.82882859612
variable tmp equal pzz
variable pzz1 equal ${tmp}
variable pzz1 equal 10433.3358735877
variable tmp equal pxy
variable pxy1 equal ${tmp}
variable pxy1 equal 1565.31202403862
variable tmp equal pxz
variable pxz1 equal ${tmp}
variable pxz1 equal 44.5564973888598
variable tmp equal pyz
variable pyz1 equal ${tmp}
variable pyz1 equal 5740.26135427057

# Compute elastic constant from pressure tensor

variable C1neg equal ${d1}
variable C1neg equal 21.8131950119941
variable C2neg equal ${d2}
variable C2neg equal 22.7377990685758
variable C3neg equal ${d3}
variable C3neg equal 30.79408111027
variable C4neg equal ${d4}
variable C4neg equal 2.77637241742075
variable C5neg equal ${d5}
variable C5neg equal 7.10020063425815
variable C6neg equal ${d6}
variable C6neg equal 4.01443207649003

# Reset box and simulation parameters

clear
OMP_NUM_THREADS environment is not set. Defaulting to 1 thread.
  using 1 OpenMP thread(s) per MPI task
box tilt large

The 'box' command has been removed and will be ignored

read_restart restart_333U-50C-9-vasp.equil
Reading restart file ...
  restart file = 10 Sep 2025, LAMMPS = 10 Sep 2025
  restoring atom style full from restart
  triclinic box = (-0.12710585 -0.070568049 -0.10333018) to (16.734896 13.517311 17.453492) with tilt (-9.5496696 -1.0844358 0.0034657957)
WARNING: Triclinic box skew is large. LAMMPS will run inefficiently. (src/domain.cpp:221)
  1 by 1 by 1 MPI processor grid
  restoring pair style lj/cut from restart
  restoring bond style harmonic from restart
  restoring angle style hybrid from restart
  restoring dihedral style harmonic from restart
  386 atoms
  411 bonds
  781 angles
  987 dihedrals
Finding 1-2 1-3 1-4 neighbors ...
  special bond factors lj:    0        0        1       
  special bond factors coul:  0        0        1       
     4 = max # of 1-2 neighbors
    10 = max # of 1-3 neighbors
    14 = max # of special neighbors
  special bonds CPU = 0.000 seconds
  read_restart CPU = 0.001 seconds
include ./input/angles_333U-50C-9-vasp.mod
angle_style hybrid fourier cosine/periodic
angle_coeff 1 fourier 157.882480        0.343737        0.374972        0.281246
angle_coeff 2 fourier 221.735285        0.343737        0.374972        0.281246
angle_coeff 3 fourier 83.380072        0.343737        0.374972        0.281246
angle_coeff 4 fourier 58.020602        0.343737        0.374972        0.281246
angle_coeff 5 fourier 114.246973        0.343737        0.374972        0.281246
angle_coeff 6 fourier 32.417871        0.343737        0.374972        0.281246
angle_coeff 7 fourier 90.420412        0.343737        0.374972        0.281246
angle_coeff 8 fourier 75.498766        0.343737        0.374972        0.281246
angle_coeff 9 cosine/periodic 88.853997              -1               3

# Positive deformation

variable delta equal ${up}*${len0}
variable delta equal 0.02*${len0}
variable delta equal 0.02*17.5568223672146
variable deltaxy equal ${up}*xy
variable deltaxy equal 0.02*xy
variable deltaxz equal ${up}*xz
variable deltaxz equal 0.02*xz
variable deltayz equal ${up}*yz
variable deltayz equal 0.02*yz
if "${dir} == 1" then    "change_box all x delta 0 ${delta} xy delta ${deltaxy} xz delta ${deltaxz} remap units box"
if "${dir} == 2" then    "change_box all y delta 0 ${delta} yz delta ${deltayz} remap units box"
if "${dir} == 3" then    "change_box all z delta 0 ${delta} remap units box"
change_box all z delta 0 ${delta} remap units box
change_box all z delta 0 0.351136447344292 remap units box
Changing box ...
WARNING: Triclinic box skew is large. LAMMPS will run inefficiently. (src/domain.cpp:221)
  triclinic box = (-0.12710585 -0.070568049 -0.10333018) to (16.734896 13.517311 17.804629) with tilt (-9.5496696 -1.0844358 0.0034657957)
if "${dir} == 4" then    "change_box all yz delta ${delta} remap units box"
if "${dir} == 5" then    "change_box all xz delta ${delta} remap units box"
if "${dir} == 6" then    "change_box all xy delta ${delta} remap units box"

# Relax atoms positions

minimize ${etol} ${ftol} ${maxiter} ${maxeval}
minimize 0 ${ftol} ${maxiter} ${maxeval}
minimize 0 1e-10 ${maxiter} ${maxeval}
minimize 0 1e-10 100000 ${maxeval}
minimize 0 1e-10 100000 100000
Generated 6 of 6 mixed pair_coeff terms from arithmetic mixing rule
Neighbor list info ...
  update: every = 1 steps, delay = 0 steps, check = yes
  max neighbors/atom: 2000, page size: 100000
  master list distance cutoff = 7
  ghost atom cutoff = 7
  binsize = 3.5, bins = 8 4 6
  1 neighbor lists, perpetual/occasional/extra = 1 0 0
  (1) pair lj/cut, perpetual
      attributes: half, newton on
      pair build: half/bin/newton/tri
      stencil: half/bin/3d/tri
      bin: standard
WARNING: Inconsistent image flags
For more information see https://docs.lammps.org/err0027 (src/domain.cpp:1052)
Per MPI rank memory allocation (min/avg/max) = 19.53 | 19.53 | 19.53 Mbytes
   Step          Temp          E_pair         E_mol          TotEng         Press     
    250424   318.23872     -456.69964      757.35076      665.86565     -23137.542    
    250446   318.23872     -482.70095      651.10146      533.61505     -9600.4373    
Loop time of 0.0280149 on 1 procs for 22 steps with 386 atoms

100.0% CPU use with 1 MPI tasks x 1 OpenMP threads

Minimization stats:
  Stopping criterion = linesearch alpha is zero
  Energy initial, next-to-last, final = 
      300.651116576461    168.40051352514    168.40051352514
  Force two-norm initial, final = 225.89165 27.398228
  Force max component initial, final = 23.735312 3.7599951
  Final line search alpha, max atom move = 1.5882594e-11 5.9718475e-11
  Iterations, force evaluations = 22 101

MPI task timing breakdown:
Section |  min time  |  avg time  |  max time  |%varavg| %total
---------------------------------------------------------------
Pair    | 0.021691   | 0.021691   | 0.021691   |   0.0 | 77.43
Bond    | 0.0052664  | 0.0052664  | 0.0052664  |   0.0 | 18.80
Neigh   | 0          | 0          | 0          |   0.0 |  0.00
Comm    | 0.00062063 | 0.00062063 | 0.00062063 |   0.0 |  2.22
Output  | 0          | 0          | 0          |   0.0 |  0.00
Modify  | 0          | 0          | 0          |   0.0 |  0.00
Other   |            | 0.0004372  |            |       |  1.56

Nlocal:            386 ave         386 max         386 min
Histogram: 1 0 0 0 0 0 0 0 0 0
Nghost:           2428 ave        2428 max        2428 min
Histogram: 1 0 0 0 0 0 0 0 0 0
Neighs:          24714 ave       24714 max       24714 min
Histogram: 1 0 0 0 0 0 0 0 0 0

Total # of neighbors = 24714
Ave neighs/atom = 64.025907
Ave special neighs/atom = 6.1761658
Neighbor list builds = 0
Dangerous builds = 0

# Obtain new stress tensor

variable tmp equal pe
variable e1 equal ${tmp}
variable e1 equal 168.40051352514
variable tmp equal press
variable p1 equal ${tmp}
variable p1 equal -9600.43730880622
variable tmp equal pxx
variable pxx1 equal ${tmp}
variable pxx1 equal -4704.25346144088
variable tmp equal pyy
variable pyy1 equal ${tmp}
variable pyy1 equal -5242.98976643681
variable tmp equal pzz
variable pzz1 equal ${tmp}
variable pzz1 equal -18854.068698541
variable tmp equal pxy
variable pxy1 equal ${tmp}
variable pxy1 equal 1394.84027860966
variable tmp equal pxz
variable pxz1 equal ${tmp}
variable pxz1 equal -847.141969560073
variable tmp equal pyz
variable pyz1 equal ${tmp}
variable pyz1 equal 3808.35436689497

# Compute elastic constant from pressure tensor

variable C1pos equal ${d1}
variable C1pos equal 41.3257598325828
variable C2pos equal ${d2}
variable C2pos equal 44.9162939065889
variable C3pos equal ${d3}
variable C3pos equal 115.642941750374
variable C4pos equal ${d4}
variable C4pos equal 6.88316251945725
variable C5pos equal ${d5}
variable C5pos equal -2.64170829951349
variable C6pos equal ${d6}
variable C6pos equal -3.16207334934523

# Combine positive and negative

variable C1${dir} equal 0.5*(${C1neg}+${C1pos})
variable C13 equal 0.5*(${C1neg}+${C1pos})
variable C13 equal 0.5*(21.8131950119941+${C1pos})
variable C13 equal 0.5*(21.8131950119941+41.3257598325828)
variable C2${dir} equal 0.5*(${C2neg}+${C2pos})
variable C23 equal 0.5*(${C2neg}+${C2pos})
variable C23 equal 0.5*(22.7377990685758+${C2pos})
variable C23 equal 0.5*(22.7377990685758+44.9162939065889)
variable C3${dir} equal 0.5*(${C3neg}+${C3pos})
variable C33 equal 0.5*(${C3neg}+${C3pos})
variable C33 equal 0.5*(30.79408111027+${C3pos})
variable C33 equal 0.5*(30.79408111027+115.642941750374)
variable C4${dir} equal 0.5*(${C4neg}+${C4pos})
variable C43 equal 0.5*(${C4neg}+${C4pos})
variable C43 equal 0.5*(2.77637241742075+${C4pos})
variable C43 equal 0.5*(2.77637241742075+6.88316251945725)
variable C5${dir} equal 0.5*(${C5neg}+${C5pos})
variable C53 equal 0.5*(${C5neg}+${C5pos})
variable C53 equal 0.5*(7.10020063425815+${C5pos})
variable C53 equal 0.5*(7.10020063425815+-2.64170829951349)
variable C6${dir} equal 0.5*(${C6neg}+${C6pos})
variable C63 equal 0.5*(${C6neg}+${C6pos})
variable C63 equal 0.5*(4.01443207649003+${C6pos})
variable C63 equal 0.5*(4.01443207649003+-3.16207334934523)

# Delete dir to make sure it is not reused

variable dir delete

# uyz Perturbation

variable dir equal 4
include ./input/displace_333U-50C-9-vasp.mod
if "${dir} == 1" then    "variable len0 equal ${lx0}"
if "${dir} == 2" then    "variable len0 equal ${ly0}"
if "${dir} == 3" then    "variable len0 equal ${lz0}"
if "${dir} == 4" then    "variable len0 equal ${lz0}"
variable len0 equal ${lz0}
variable len0 equal 17.5568223672146
if "${dir} == 5" then    "variable len0 equal ${lz0}"
if "${dir} == 6" then    "variable len0 equal ${ly0}"

# Reset box and simulation parameters

clear
OMP_NUM_THREADS environment is not set. Defaulting to 1 thread.
  using 1 OpenMP thread(s) per MPI task
box tilt large

The 'box' command has been removed and will be ignored

read_restart restart_333U-50C-9-vasp.equil
Reading restart file ...
  restart file = 10 Sep 2025, LAMMPS = 10 Sep 2025
  restoring atom style full from restart
  triclinic box = (-0.12710585 -0.070568049 -0.10333018) to (16.734896 13.517311 17.453492) with tilt (-9.5496696 -1.0844358 0.0034657957)
WARNING: Triclinic box skew is large. LAMMPS will run inefficiently. (src/domain.cpp:221)
  1 by 1 by 1 MPI processor grid
  restoring pair style lj/cut from restart
  restoring bond style harmonic from restart
  restoring angle style hybrid from restart
  restoring dihedral style harmonic from restart
  386 atoms
  411 bonds
  781 angles
  987 dihedrals
Finding 1-2 1-3 1-4 neighbors ...
  special bond factors lj:    0        0        1       
  special bond factors coul:  0        0        1       
     4 = max # of 1-2 neighbors
    10 = max # of 1-3 neighbors
    14 = max # of special neighbors
  special bonds CPU = 0.000 seconds
  read_restart CPU = 0.001 seconds
include ./input/angles_333U-50C-9-vasp.mod
angle_style hybrid fourier cosine/periodic
angle_coeff 1 fourier 157.882480        0.343737        0.374972        0.281246
angle_coeff 2 fourier 221.735285        0.343737        0.374972        0.281246
angle_coeff 3 fourier 83.380072        0.343737        0.374972        0.281246
angle_coeff 4 fourier 58.020602        0.343737        0.374972        0.281246
angle_coeff 5 fourier 114.246973        0.343737        0.374972        0.281246
angle_coeff 6 fourier 32.417871        0.343737        0.374972        0.281246
angle_coeff 7 fourier 90.420412        0.343737        0.374972        0.281246
angle_coeff 8 fourier 75.498766        0.343737        0.374972        0.281246
angle_coeff 9 cosine/periodic 88.853997              -1               3

# Negative deformation

variable delta equal -${up}*${len0}
variable delta equal -0.02*${len0}
variable delta equal -0.02*17.5568223672146
variable deltaxy equal -${up}*xy
variable deltaxy equal -0.02*xy
variable deltaxz equal -${up}*xz
variable deltaxz equal -0.02*xz
variable deltayz equal -${up}*yz
variable deltayz equal -0.02*yz
if "${dir} == 1" then    "change_box all x delta 0 ${delta} xy delta ${deltaxy} xz delta ${deltaxz} remap units box"
if "${dir} == 2" then    "change_box all y delta 0 ${delta} yz delta ${deltayz} remap units box"
if "${dir} == 3" then    "change_box all z delta 0 ${delta} remap units box"
if "${dir} == 4" then    "change_box all yz delta ${delta} remap units box"
change_box all yz delta ${delta} remap units box
change_box all yz delta -0.351136447344292 remap units box
Changing box ...
WARNING: Triclinic box skew is large. LAMMPS will run inefficiently. (src/domain.cpp:221)
  triclinic box = (-0.12710585 -0.070568049 -0.10333018) to (16.734896 13.517311 17.453492) with tilt (-9.5496696 -1.0844358 -0.34767065)
if "${dir} == 5" then    "change_box all xz delta ${delta} remap units box"
if "${dir} == 6" then    "change_box all xy delta ${delta} remap units box"

# Relax atoms positions

minimize ${etol} ${ftol} ${maxiter} ${maxeval}
minimize 0 ${ftol} ${maxiter} ${maxeval}
minimize 0 1e-10 ${maxiter} ${maxeval}
minimize 0 1e-10 100000 ${maxeval}
minimize 0 1e-10 100000 100000
Generated 6 of 6 mixed pair_coeff terms from arithmetic mixing rule
Neighbor list info ...
  update: every = 1 steps, delay = 0 steps, check = yes
  max neighbors/atom: 2000, page size: 100000
  master list distance cutoff = 7
  ghost atom cutoff = 7
  binsize = 3.5, bins = 8 4 6
  1 neighbor lists, perpetual/occasional/extra = 1 0 0
  (1) pair lj/cut, perpetual
      attributes: half, newton on
      pair build: half/bin/newton/tri
      stencil: half/bin/3d/tri
      bin: standard
WARNING: Inconsistent image flags
For more information see https://docs.lammps.org/err0027 (src/domain.cpp:1052)
Per MPI rank memory allocation (min/avg/max) = 19.53 | 19.53 | 19.53 Mbytes
   Step          Temp          E_pair         E_mol          TotEng         Press     
    250424   318.23872     -434.75931      719.56961      650.02484      3567.0443    
    250460   318.23872     -464.64379      617.882        518.45274     -849.0338     
Loop time of 0.0366057 on 1 procs for 36 steps with 386 atoms

100.0% CPU use with 1 MPI tasks x 1 OpenMP threads

Minimization stats:
  Stopping criterion = linesearch alpha is zero
  Energy initial, next-to-last, final = 
      284.810302058218   153.238202967514   153.238202967514
  Force two-norm initial, final = 189.02116 14.703993
  Force max component initial, final = 19.834025 2.0242418
  Final line search alpha, max atom move = 4.1431193e-11 8.3866753e-11
  Iterations, force evaluations = 36 127

MPI task timing breakdown:
Section |  min time  |  avg time  |  max time  |%varavg| %total
---------------------------------------------------------------
Pair    | 0.02844    | 0.02844    | 0.02844    |   0.0 | 77.69
Bond    | 0.0067593  | 0.0067593  | 0.0067593  |   0.0 | 18.47
Neigh   | 0          | 0          | 0          |   0.0 |  0.00
Comm    | 0.00081806 | 0.00081806 | 0.00081806 |   0.0 |  2.23
Output  | 0          | 0          | 0          |   0.0 |  0.00
Modify  | 0          | 0          | 0          |   0.0 |  0.00
Other   |            | 0.0005885  |            |       |  1.61

Nlocal:            386 ave         386 max         386 min
Histogram: 1 0 0 0 0 0 0 0 0 0
Nghost:           2448 ave        2448 max        2448 min
Histogram: 1 0 0 0 0 0 0 0 0 0
Neighs:          25241 ave       25241 max       25241 min
Histogram: 1 0 0 0 0 0 0 0 0 0

Total # of neighbors = 25241
Ave neighs/atom = 65.391192
Ave special neighs/atom = 6.1761658
Neighbor list builds = 0
Dangerous builds = 0

# Obtain new stress tensor

variable tmp equal pxx
variable pxx1 equal ${tmp}
variable pxx1 equal 678.842599250916
variable tmp equal pyy
variable pyy1 equal ${tmp}
variable pyy1 equal 509.979499253193
variable tmp equal pzz
variable pzz1 equal ${tmp}
variable pzz1 equal -3735.92349804294
variable tmp equal pxy
variable pxy1 equal ${tmp}
variable pxy1 equal 1766.37292054277
variable tmp equal pxz
variable pxz1 equal ${tmp}
variable pxz1 equal -408.536270614562
variable tmp equal pyz
variable pyz1 equal ${tmp}
variable pyz1 equal 11756.6333106299

# Compute elastic constant from pressure tensor

variable C1neg equal ${d1}
variable C1neg equal -14.4102795291238
variable C2neg equal ${d2}
variable C2neg equal -16.1514475781388
variable C3neg equal ${d3}
variable C3neg equal -40.0522157478832
variable C4neg equal ${d4}
variable C4neg equal 32.8582321992174
variable C5neg equal ${d5}
variable C5neg equal 4.83473679424104
variable C6neg equal ${d6}
variable C6neg equal 5.01973655901079

# Reset box and simulation parameters

clear
OMP_NUM_THREADS environment is not set. Defaulting to 1 thread.
  using 1 OpenMP thread(s) per MPI task
box tilt large

The 'box' command has been removed and will be ignored

read_restart restart_333U-50C-9-vasp.equil
Reading restart file ...
  restart file = 10 Sep 2025, LAMMPS = 10 Sep 2025
  restoring atom style full from restart
  triclinic box = (-0.12710585 -0.070568049 -0.10333018) to (16.734896 13.517311 17.453492) with tilt (-9.5496696 -1.0844358 0.0034657957)
WARNING: Triclinic box skew is large. LAMMPS will run inefficiently. (src/domain.cpp:221)
  1 by 1 by 1 MPI processor grid
  restoring pair style lj/cut from restart
  restoring bond style harmonic from restart
  restoring angle style hybrid from restart
  restoring dihedral style harmonic from restart
  386 atoms
  411 bonds
  781 angles
  987 dihedrals
Finding 1-2 1-3 1-4 neighbors ...
  special bond factors lj:    0        0        1       
  special bond factors coul:  0        0        1       
     4 = max # of 1-2 neighbors
    10 = max # of 1-3 neighbors
    14 = max # of special neighbors
  special bonds CPU = 0.000 seconds
  read_restart CPU = 0.001 seconds
include ./input/angles_333U-50C-9-vasp.mod
angle_style hybrid fourier cosine/periodic
angle_coeff 1 fourier 157.882480        0.343737        0.374972        0.281246
angle_coeff 2 fourier 221.735285        0.343737        0.374972        0.281246
angle_coeff 3 fourier 83.380072        0.343737        0.374972        0.281246
angle_coeff 4 fourier 58.020602        0.343737        0.374972        0.281246
angle_coeff 5 fourier 114.246973        0.343737        0.374972        0.281246
angle_coeff 6 fourier 32.417871        0.343737        0.374972        0.281246
angle_coeff 7 fourier 90.420412        0.343737        0.374972        0.281246
angle_coeff 8 fourier 75.498766        0.343737        0.374972        0.281246
angle_coeff 9 cosine/periodic 88.853997              -1               3

# Positive deformation

variable delta equal ${up}*${len0}
variable delta equal 0.02*${len0}
variable delta equal 0.02*17.5568223672146
variable deltaxy equal ${up}*xy
variable deltaxy equal 0.02*xy
variable deltaxz equal ${up}*xz
variable deltaxz equal 0.02*xz
variable deltayz equal ${up}*yz
variable deltayz equal 0.02*yz
if "${dir} == 1" then    "change_box all x delta 0 ${delta} xy delta ${deltaxy} xz delta ${deltaxz} remap units box"
if "${dir} == 2" then    "change_box all y delta 0 ${delta} yz delta ${deltayz} remap units box"
if "${dir} == 3" then    "change_box all z delta 0 ${delta} remap units box"
if "${dir} == 4" then    "change_box all yz delta ${delta} remap units box"
change_box all yz delta ${delta} remap units box
change_box all yz delta 0.351136447344292 remap units box
Changing box ...
WARNING: Triclinic box skew is large. LAMMPS will run inefficiently. (src/domain.cpp:221)
  triclinic box = (-0.12710585 -0.070568049 -0.10333018) to (16.734896 13.517311 17.453492) with tilt (-9.5496696 -1.0844358 0.35460224)
if "${dir} == 5" then    "change_box all xz delta ${delta} remap units box"
if "${dir} == 6" then    "change_box all xy delta ${delta} remap units box"

# Relax atoms positions

minimize ${etol} ${ftol} ${maxiter} ${maxeval}
minimize 0 ${ftol} ${maxiter} ${maxeval}
minimize 0 1e-10 ${maxiter} ${maxeval}
minimize 0 1e-10 100000 ${maxeval}
minimize 0 1e-10 100000 100000
Generated 6 of 6 mixed pair_coeff terms from arithmetic mixing rule
Neighbor list info ...
  update: every = 1 steps, delay = 0 steps, check = yes
  max neighbors/atom: 2000, page size: 100000
  master list distance cutoff = 7
  ghost atom cutoff = 7
  binsize = 3.5, bins = 8 4 6
  1 neighbor lists, perpetual/occasional/extra = 1 0 0
  (1) pair lj/cut, perpetual
      attributes: half, newton on
      pair build: half/bin/newton/tri
      stencil: half/bin/3d/tri
      bin: standard
WARNING: Inconsistent image flags
For more information see https://docs.lammps.org/err0027 (src/domain.cpp:1052)
Per MPI rank memory allocation (min/avg/max) = 19.53 | 19.53 | 19.53 Mbytes
   Step          Temp          E_pair         E_mol          TotEng         Press     
    250424   318.23872     -434.74264      709.71466      640.18656      3825.9979    
    250458   318.23872     -467.91263      611.36426      508.66616     -1275.4195    
Loop time of 0.0356935 on 1 procs for 34 steps with 386 atoms

100.0% CPU use with 1 MPI tasks x 1 OpenMP threads

Minimization stats:
  Stopping criterion = linesearch alpha is zero
  Energy initial, next-to-last, final = 
      274.972023014413   143.451623442492   143.451623442492
  Force two-norm initial, final = 189.38084 17.201642
  Force max component initial, final = 18.613741 1.9452108
  Final line search alpha, max atom move = 4.161976e-11 8.0959207e-11
  Iterations, force evaluations = 34 123

MPI task timing breakdown:
Section |  min time  |  avg time  |  max time  |%varavg| %total
---------------------------------------------------------------
Pair    | 0.027763   | 0.027763   | 0.027763   |   0.0 | 77.78
Bond    | 0.0065593  | 0.0065593  | 0.0065593  |   0.0 | 18.38
Neigh   | 0          | 0          | 0          |   0.0 |  0.00
Comm    | 0.000776   | 0.000776   | 0.000776   |   0.0 |  2.17
Output  | 0          | 0          | 0          |   0.0 |  0.00
Modify  | 0          | 0          | 0          |   0.0 |  0.00
Other   |            | 0.000595   |            |       |  1.67

Nlocal:            386 ave         386 max         386 min
Histogram: 1 0 0 0 0 0 0 0 0 0
Nghost:           2448 ave        2448 max        2448 min
Histogram: 1 0 0 0 0 0 0 0 0 0
Neighs:          25227 ave       25227 max       25227 min
Histogram: 1 0 0 0 0 0 0 0 0 0

Total # of neighbors = 25227
Ave neighs/atom = 65.354922
Ave special neighs/atom = 6.1761658
Neighbor list builds = 0
Dangerous builds = 0

# Obtain new stress tensor

variable tmp equal pe
variable e1 equal ${tmp}
variable e1 equal 143.451623442492
variable tmp equal press
variable p1 equal ${tmp}
variable p1 equal -1275.41952107766
variable tmp equal pxx
variable pxx1 equal ${tmp}
variable pxx1 equal 1251.51101243097
variable tmp equal pyy
variable pyy1 equal ${tmp}
variable pyy1 equal 534.958470102976
variable tmp equal pzz
variable pzz1 equal ${tmp}
variable pzz1 equal -5612.72804576693
variable tmp equal pxy
variable pxy1 equal ${tmp}
variable pxy1 equal 1321.83941570739
variable tmp equal pxz
variable pxz1 equal ${tmp}
variable pxz1 equal -96.8626751841175
variable tmp equal pyz
variable pyz1 equal ${tmp}
variable pyz1 equal -2039.94194125724

# Compute elastic constant from pressure tensor

variable C1pos equal ${d1}
variable C1pos equal 11.5469374632235
variable C2pos equal ${d2}
variable C2pos equal 16.0265527238899
variable C3pos equal ${d3}
variable C3pos equal 49.4362384865032
variable C4pos equal ${d4}
variable C4pos equal 36.1246440602183
variable C5pos equal ${d5}
variable C5pos equal -6.39310477139326
variable C6pos equal ${d6}
variable C6pos equal -2.79706903483388

# Combine positive and negative

variable C1${dir} equal 0.5*(${C1neg}+${C1pos})
variable C14 equal 0.5*(${C1neg}+${C1pos})
variable C14 equal 0.5*(-14.4102795291238+${C1pos})
variable C14 equal 0.5*(-14.4102795291238+11.5469374632235)
variable C2${dir} equal 0.5*(${C2neg}+${C2pos})
variable C24 equal 0.5*(${C2neg}+${C2pos})
variable C24 equal 0.5*(-16.1514475781388+${C2pos})
variable C24 equal 0.5*(-16.1514475781388+16.0265527238899)
variable C3${dir} equal 0.5*(${C3neg}+${C3pos})
variable C34 equal 0.5*(${C3neg}+${C3pos})
variable C34 equal 0.5*(-40.0522157478832+${C3pos})
variable C34 equal 0.5*(-40.0522157478832+49.4362384865032)
variable C4${dir} equal 0.5*(${C4neg}+${C4pos})
variable C44 equal 0.5*(${C4neg}+${C4pos})
variable C44 equal 0.5*(32.8582321992174+${C4pos})
variable C44 equal 0.5*(32.8582321992174+36.1246440602183)
variable C5${dir} equal 0.5*(${C5neg}+${C5pos})
variable C54 equal 0.5*(${C5neg}+${C5pos})
variable C54 equal 0.5*(4.83473679424104+${C5pos})
variable C54 equal 0.5*(4.83473679424104+-6.39310477139326)
variable C6${dir} equal 0.5*(${C6neg}+${C6pos})
variable C64 equal 0.5*(${C6neg}+${C6pos})
variable C64 equal 0.5*(5.01973655901079+${C6pos})
variable C64 equal 0.5*(5.01973655901079+-2.79706903483388)

# Delete dir to make sure it is not reused

variable dir delete

# uxz Perturbation

variable dir equal 5
include ./input/displace_333U-50C-9-vasp.mod
if "${dir} == 1" then    "variable len0 equal ${lx0}"
if "${dir} == 2" then    "variable len0 equal ${ly0}"
if "${dir} == 3" then    "variable len0 equal ${lz0}"
if "${dir} == 4" then    "variable len0 equal ${lz0}"
if "${dir} == 5" then    "variable len0 equal ${lz0}"
variable len0 equal ${lz0}
variable len0 equal 17.5568223672146
if "${dir} == 6" then    "variable len0 equal ${ly0}"

# Reset box and simulation parameters

clear
OMP_NUM_THREADS environment is not set. Defaulting to 1 thread.
  using 1 OpenMP thread(s) per MPI task
box tilt large

The 'box' command has been removed and will be ignored

read_restart restart_333U-50C-9-vasp.equil
Reading restart file ...
  restart file = 10 Sep 2025, LAMMPS = 10 Sep 2025
  restoring atom style full from restart
  triclinic box = (-0.12710585 -0.070568049 -0.10333018) to (16.734896 13.517311 17.453492) with tilt (-9.5496696 -1.0844358 0.0034657957)
WARNING: Triclinic box skew is large. LAMMPS will run inefficiently. (src/domain.cpp:221)
  1 by 1 by 1 MPI processor grid
  restoring pair style lj/cut from restart
  restoring bond style harmonic from restart
  restoring angle style hybrid from restart
  restoring dihedral style harmonic from restart
  386 atoms
  411 bonds
  781 angles
  987 dihedrals
Finding 1-2 1-3 1-4 neighbors ...
  special bond factors lj:    0        0        1       
  special bond factors coul:  0        0        1       
     4 = max # of 1-2 neighbors
    10 = max # of 1-3 neighbors
    14 = max # of special neighbors
  special bonds CPU = 0.000 seconds
  read_restart CPU = 0.001 seconds
include ./input/angles_333U-50C-9-vasp.mod
angle_style hybrid fourier cosine/periodic
angle_coeff 1 fourier 157.882480        0.343737        0.374972        0.281246
angle_coeff 2 fourier 221.735285        0.343737        0.374972        0.281246
angle_coeff 3 fourier 83.380072        0.343737        0.374972        0.281246
angle_coeff 4 fourier 58.020602        0.343737        0.374972        0.281246
angle_coeff 5 fourier 114.246973        0.343737        0.374972        0.281246
angle_coeff 6 fourier 32.417871        0.343737        0.374972        0.281246
angle_coeff 7 fourier 90.420412        0.343737        0.374972        0.281246
angle_coeff 8 fourier 75.498766        0.343737        0.374972        0.281246
angle_coeff 9 cosine/periodic 88.853997              -1               3

# Negative deformation

variable delta equal -${up}*${len0}
variable delta equal -0.02*${len0}
variable delta equal -0.02*17.5568223672146
variable deltaxy equal -${up}*xy
variable deltaxy equal -0.02*xy
variable deltaxz equal -${up}*xz
variable deltaxz equal -0.02*xz
variable deltayz equal -${up}*yz
variable deltayz equal -0.02*yz
if "${dir} == 1" then    "change_box all x delta 0 ${delta} xy delta ${deltaxy} xz delta ${deltaxz} remap units box"
if "${dir} == 2" then    "change_box all y delta 0 ${delta} yz delta ${deltayz} remap units box"
if "${dir} == 3" then    "change_box all z delta 0 ${delta} remap units box"
if "${dir} == 4" then    "change_box all yz delta ${delta} remap units box"
if "${dir} == 5" then    "change_box all xz delta ${delta} remap units box"
change_box all xz delta ${delta} remap units box
change_box all xz delta -0.351136447344292 remap units box
Changing box ...
WARNING: Triclinic box skew is large. LAMMPS will run inefficiently. (src/domain.cpp:221)
  triclinic box = (-0.12710585 -0.070568049 -0.10333018) to (16.734896 13.517311 17.453492) with tilt (-9.5496696 -1.4355723 0.0034657957)
if "${dir} == 6" then    "change_box all xy delta ${delta} remap units box"

# Relax atoms positions

minimize ${etol} ${ftol} ${maxiter} ${maxeval}
minimize 0 ${ftol} ${maxiter} ${maxeval}
minimize 0 1e-10 ${maxiter} ${maxeval}
minimize 0 1e-10 100000 ${maxeval}
minimize 0 1e-10 100000 100000
Generated 6 of 6 mixed pair_coeff terms from arithmetic mixing rule
Neighbor list info ...
  update: every = 1 steps, delay = 0 steps, check = yes
  max neighbors/atom: 2000, page size: 100000
  master list distance cutoff = 7
  ghost atom cutoff = 7
  binsize = 3.5, bins = 8 4 6
  1 neighbor lists, perpetual/occasional/extra = 1 0 0
  (1) pair lj/cut, perpetual
      attributes: half, newton on
      pair build: half/bin/newton/tri
      stencil: half/bin/3d/tri
      bin: standard
WARNING: Inconsistent image flags
For more information see https://docs.lammps.org/err0027 (src/domain.cpp:1052)
Per MPI rank memory allocation (min/avg/max) = 19.53 | 19.53 | 19.53 Mbytes
   Step          Temp          E_pair         E_mol          TotEng         Press     
    250424   318.23872     -437.41941      715.53403      643.32915      3557.0525    
    250461   318.23872     -467.94418      615.75302      513.02337     -994.18521    
Loop time of 0.0326435 on 1 procs for 37 steps with 386 atoms

100.0% CPU use with 1 MPI tasks x 1 OpenMP threads

Minimization stats:
  Stopping criterion = linesearch alpha is zero
  Energy initial, next-to-last, final = 
      278.114619018569   147.808839776858   147.808839776858
  Force two-norm initial, final = 191.16304 15.81604
  Force max component initial, final = 17.587265 2.7194993
  Final line search alpha, max atom move = 3.7805878e-11 1.0281306e-10
  Iterations, force evaluations = 37 129

MPI task timing breakdown:
Section |  min time  |  avg time  |  max time  |%varavg| %total
---------------------------------------------------------------
Pair    | 0.025262   | 0.025262   | 0.025262   |   0.0 | 77.39
Bond    | 0.0060892  | 0.0060892  | 0.0060892  |   0.0 | 18.65
Neigh   | 0          | 0          | 0          |   0.0 |  0.00
Comm    | 0.00072863 | 0.00072863 | 0.00072863 |   0.0 |  2.23
Output  | 0          | 0          | 0          |   0.0 |  0.00
Modify  | 0          | 0          | 0          |   0.0 |  0.00
Other   |            | 0.0005638  |            |       |  1.73

Nlocal:            386 ave         386 max         386 min
Histogram: 1 0 0 0 0 0 0 0 0 0
Nghost:           2444 ave        2444 max        2444 min
Histogram: 1 0 0 0 0 0 0 0 0 0
Neighs:          25234 ave       25234 max       25234 min
Histogram: 1 0 0 0 0 0 0 0 0 0

Total # of neighbors = 25234
Ave neighs/atom = 65.373057
Ave special neighs/atom = 6.1761658
Neighbor list builds = 0
Dangerous builds = 0

# Obtain new stress tensor

variable tmp equal pxx
variable pxx1 equal ${tmp}
variable pxx1 equal 323.50706948953
variable tmp equal pyy
variable pyy1 equal ${tmp}
variable pyy1 equal 1141.39761382073
variable tmp equal pzz
variable pzz1 equal ${tmp}
variable pzz1 equal -4447.46030086263
variable tmp equal pxy
variable pxy1 equal ${tmp}
variable pxy1 equal 1246.31281441485
variable tmp equal pxz
variable pxz1 equal ${tmp}
variable pxz1 equal 5072.42449021804
variable tmp equal pyz
variable pyz1 equal ${tmp}
variable pyz1 equal 4559.92995535299

# Compute elastic constant from pressure tensor

variable C1neg equal ${d1}
variable C1neg equal -16.1869571779307
variable C2neg equal ${d2}
variable C2neg equal -12.9943570053012
variable C3neg equal ${d3}
variable C3neg equal -43.6098997619817
variable C4neg equal ${d4}
variable C4neg equal -3.12528457716715
variable C5neg equal ${d5}
variable C5neg equal 32.2395405984041
variable C6neg equal ${d6}
variable C6neg equal 2.41943602837119

# Reset box and simulation parameters

clear
OMP_NUM_THREADS environment is not set. Defaulting to 1 thread.
  using 1 OpenMP thread(s) per MPI task
box tilt large

The 'box' command has been removed and will be ignored

read_restart restart_333U-50C-9-vasp.equil
Reading restart file ...
  restart file = 10 Sep 2025, LAMMPS = 10 Sep 2025
  restoring atom style full from restart
  triclinic box = (-0.12710585 -0.070568049 -0.10333018) to (16.734896 13.517311 17.453492) with tilt (-9.5496696 -1.0844358 0.0034657957)
WARNING: Triclinic box skew is large. LAMMPS will run inefficiently. (src/domain.cpp:221)
  1 by 1 by 1 MPI processor grid
  restoring pair style lj/cut from restart
  restoring bond style harmonic from restart
  restoring angle style hybrid from restart
  restoring dihedral style harmonic from restart
  386 atoms
  411 bonds
  781 angles
  987 dihedrals
Finding 1-2 1-3 1-4 neighbors ...
  special bond factors lj:    0        0        1       
  special bond factors coul:  0        0        1       
     4 = max # of 1-2 neighbors
    10 = max # of 1-3 neighbors
    14 = max # of special neighbors
  special bonds CPU = 0.000 seconds
  read_restart CPU = 0.001 seconds
include ./input/angles_333U-50C-9-vasp.mod
angle_style hybrid fourier cosine/periodic
angle_coeff 1 fourier 157.882480        0.343737        0.374972        0.281246
angle_coeff 2 fourier 221.735285        0.343737        0.374972        0.281246
angle_coeff 3 fourier 83.380072        0.343737        0.374972        0.281246
angle_coeff 4 fourier 58.020602        0.343737        0.374972        0.281246
angle_coeff 5 fourier 114.246973        0.343737        0.374972        0.281246
angle_coeff 6 fourier 32.417871        0.343737        0.374972        0.281246
angle_coeff 7 fourier 90.420412        0.343737        0.374972        0.281246
angle_coeff 8 fourier 75.498766        0.343737        0.374972        0.281246
angle_coeff 9 cosine/periodic 88.853997              -1               3

# Positive deformation

variable delta equal ${up}*${len0}
variable delta equal 0.02*${len0}
variable delta equal 0.02*17.5568223672146
variable deltaxy equal ${up}*xy
variable deltaxy equal 0.02*xy
variable deltaxz equal ${up}*xz
variable deltaxz equal 0.02*xz
variable deltayz equal ${up}*yz
variable deltayz equal 0.02*yz
if "${dir} == 1" then    "change_box all x delta 0 ${delta} xy delta ${deltaxy} xz delta ${deltaxz} remap units box"
if "${dir} == 2" then    "change_box all y delta 0 ${delta} yz delta ${deltayz} remap units box"
if "${dir} == 3" then    "change_box all z delta 0 ${delta} remap units box"
if "${dir} == 4" then    "change_box all yz delta ${delta} remap units box"
if "${dir} == 5" then    "change_box all xz delta ${delta} remap units box"
change_box all xz delta ${delta} remap units box
change_box all xz delta 0.351136447344292 remap units box
Changing box ...
WARNING: Triclinic box skew is large. LAMMPS will run inefficiently. (src/domain.cpp:221)
  triclinic box = (-0.12710585 -0.070568049 -0.10333018) to (16.734896 13.517311 17.453492) with tilt (-9.5496696 -0.73329939 0.0034657957)
if "${dir} == 6" then    "change_box all xy delta ${delta} remap units box"

# Relax atoms positions

minimize ${etol} ${ftol} ${maxiter} ${maxeval}
minimize 0 ${ftol} ${maxiter} ${maxeval}
minimize 0 1e-10 ${maxiter} ${maxeval}
minimize 0 1e-10 100000 ${maxeval}
minimize 0 1e-10 100000 100000
Generated 6 of 6 mixed pair_coeff terms from arithmetic mixing rule
Neighbor list info ...
  update: every = 1 steps, delay = 0 steps, check = yes
  max neighbors/atom: 2000, page size: 100000
  master list distance cutoff = 7
  ghost atom cutoff = 7
  binsize = 3.5, bins = 8 4 6
  1 neighbor lists, perpetual/occasional/extra = 1 0 0
  (1) pair lj/cut, perpetual
      attributes: half, newton on
      pair build: half/bin/newton/tri
      stencil: half/bin/3d/tri
      bin: standard
WARNING: Inconsistent image flags
For more information see https://docs.lammps.org/err0027 (src/domain.cpp:1052)
Per MPI rank memory allocation (min/avg/max) = 19.53 | 19.53 | 19.53 Mbytes
   Step          Temp          E_pair         E_mol          TotEng         Press     
    250424   318.23872     -433.20735      713.85787      645.86505      3795.9744    
    250460   318.23872     -465.59077      612.0576       511.68136     -1092.5458    
Loop time of 0.0346468 on 1 procs for 36 steps with 386 atoms

100.0% CPU use with 1 MPI tasks x 1 OpenMP threads

Minimization stats:
  Stopping criterion = linesearch alpha is zero
  Energy initial, next-to-last, final = 
      280.650520260179   146.466828947644   146.466828947644
  Force two-norm initial, final = 191.43868 14.523022
  Force max component initial, final = 19.666501 1.6718452
  Final line search alpha, max atom move = 3.0019235e-11 5.0187513e-11
  Iterations, force evaluations = 36 128

MPI task timing breakdown:
Section |  min time  |  avg time  |  max time  |%varavg| %total
---------------------------------------------------------------
Pair    | 0.026961   | 0.026961   | 0.026961   |   0.0 | 77.82
Bond    | 0.0063573  | 0.0063573  | 0.0063573  |   0.0 | 18.35
Neigh   | 0          | 0          | 0          |   0.0 |  0.00
Comm    | 0.0007574  | 0.0007574  | 0.0007574  |   0.0 |  2.19
Output  | 0          | 0          | 0          |   0.0 |  0.00
Modify  | 0          | 0          | 0          |   0.0 |  0.00
Other   |            | 0.0005712  |            |       |  1.65

Nlocal:            386 ave         386 max         386 min
Histogram: 1 0 0 0 0 0 0 0 0 0
Nghost:           2444 ave        2444 max        2444 min
Histogram: 1 0 0 0 0 0 0 0 0 0
Neighs:          25242 ave       25242 max       25242 min
Histogram: 1 0 0 0 0 0 0 0 0 0

Total # of neighbors = 25242
Ave neighs/atom = 65.393782
Ave special neighs/atom = 6.1761658
Neighbor list builds = 0
Dangerous builds = 0

# Obtain new stress tensor

variable tmp equal pe
variable e1 equal ${tmp}
variable e1 equal 146.466828947644
variable tmp equal press
variable p1 equal ${tmp}
variable p1 equal -1092.54575754942
variable tmp equal pxx
variable pxx1 equal ${tmp}
variable pxx1 equal 1414.48438911761
variable tmp equal pyy
variable pyy1 equal ${tmp}
variable pyy1 equal 198.958808175246
variable tmp equal pzz
variable pzz1 equal ${tmp}
variable pzz1 equal -4891.08046994113
variable tmp equal pxy
variable pxy1 equal ${tmp}
variable pxy1 equal 1785.98695375457
variable tmp equal pxz
variable pxz1 equal ${tmp}
variable pxz1 equal -5725.09960808879
variable tmp equal pyz
variable pyz1 equal ${tmp}
variable pyz1 equal 4841.92203096217

# Compute elastic constant from pressure tensor

variable C1pos equal ${d1}
variable C1pos equal 10.7320705797903
variable C2pos equal ${d2}
variable C2pos equal 17.7065510335286
variable C3pos equal ${d3}
variable C3pos equal 45.8280006073742
variable C4pos equal ${d4}
variable C4pos equal 1.71532419912125
variable C5pos equal ${d5}
variable C5pos equal 21.7480798931301
variable C6pos equal ${d6}
variable C6pos equal -5.11780672506979

# Combine positive and negative

variable C1${dir} equal 0.5*(${C1neg}+${C1pos})
variable C15 equal 0.5*(${C1neg}+${C1pos})
variable C15 equal 0.5*(-16.1869571779307+${C1pos})
variable C15 equal 0.5*(-16.1869571779307+10.7320705797903)
variable C2${dir} equal 0.5*(${C2neg}+${C2pos})
variable C25 equal 0.5*(${C2neg}+${C2pos})
variable C25 equal 0.5*(-12.9943570053012+${C2pos})
variable C25 equal 0.5*(-12.9943570053012+17.7065510335286)
variable C3${dir} equal 0.5*(${C3neg}+${C3pos})
variable C35 equal 0.5*(${C3neg}+${C3pos})
variable C35 equal 0.5*(-43.6098997619817+${C3pos})
variable C35 equal 0.5*(-43.6098997619817+45.8280006073742)
variable C4${dir} equal 0.5*(${C4neg}+${C4pos})
variable C45 equal 0.5*(${C4neg}+${C4pos})
variable C45 equal 0.5*(-3.12528457716715+${C4pos})
variable C45 equal 0.5*(-3.12528457716715+1.71532419912125)
variable C5${dir} equal 0.5*(${C5neg}+${C5pos})
variable C55 equal 0.5*(${C5neg}+${C5pos})
variable C55 equal 0.5*(32.2395405984041+${C5pos})
variable C55 equal 0.5*(32.2395405984041+21.7480798931301)
variable C6${dir} equal 0.5*(${C6neg}+${C6pos})
variable C65 equal 0.5*(${C6neg}+${C6pos})
variable C65 equal 0.5*(2.41943602837119+${C6pos})
variable C65 equal 0.5*(2.41943602837119+-5.11780672506979)

# Delete dir to make sure it is not reused

variable dir delete

# uxy Perturbation

variable dir equal 6
include ./input/displace_333U-50C-9-vasp.mod
if "${dir} == 1" then    "variable len0 equal ${lx0}"
if "${dir} == 2" then    "variable len0 equal ${ly0}"
if "${dir} == 3" then    "variable len0 equal ${lz0}"
if "${dir} == 4" then    "variable len0 equal ${lz0}"
if "${dir} == 5" then    "variable len0 equal ${lz0}"
if "${dir} == 6" then    "variable len0 equal ${ly0}"
variable len0 equal ${ly0}
variable len0 equal 13.5878790988403

# Reset box and simulation parameters

clear
OMP_NUM_THREADS environment is not set. Defaulting to 1 thread.
  using 1 OpenMP thread(s) per MPI task
box tilt large

The 'box' command has been removed and will be ignored

read_restart restart_333U-50C-9-vasp.equil
Reading restart file ...
  restart file = 10 Sep 2025, LAMMPS = 10 Sep 2025
  restoring atom style full from restart
  triclinic box = (-0.12710585 -0.070568049 -0.10333018) to (16.734896 13.517311 17.453492) with tilt (-9.5496696 -1.0844358 0.0034657957)
WARNING: Triclinic box skew is large. LAMMPS will run inefficiently. (src/domain.cpp:221)
  1 by 1 by 1 MPI processor grid
  restoring pair style lj/cut from restart
  restoring bond style harmonic from restart
  restoring angle style hybrid from restart
  restoring dihedral style harmonic from restart
  386 atoms
  411 bonds
  781 angles
  987 dihedrals
Finding 1-2 1-3 1-4 neighbors ...
  special bond factors lj:    0        0        1       
  special bond factors coul:  0        0        1       
     4 = max # of 1-2 neighbors
    10 = max # of 1-3 neighbors
    14 = max # of special neighbors
  special bonds CPU = 0.000 seconds
  read_restart CPU = 0.001 seconds
include ./input/angles_333U-50C-9-vasp.mod
angle_style hybrid fourier cosine/periodic
angle_coeff 1 fourier 157.882480        0.343737        0.374972        0.281246
angle_coeff 2 fourier 221.735285        0.343737        0.374972        0.281246
angle_coeff 3 fourier 83.380072        0.343737        0.374972        0.281246
angle_coeff 4 fourier 58.020602        0.343737        0.374972        0.281246
angle_coeff 5 fourier 114.246973        0.343737        0.374972        0.281246
angle_coeff 6 fourier 32.417871        0.343737        0.374972        0.281246
angle_coeff 7 fourier 90.420412        0.343737        0.374972        0.281246
angle_coeff 8 fourier 75.498766        0.343737        0.374972        0.281246
angle_coeff 9 cosine/periodic 88.853997              -1               3

# Negative deformation

variable delta equal -${up}*${len0}
variable delta equal -0.02*${len0}
variable delta equal -0.02*13.5878790988403
variable deltaxy equal -${up}*xy
variable deltaxy equal -0.02*xy
variable deltaxz equal -${up}*xz
variable deltaxz equal -0.02*xz
variable deltayz equal -${up}*yz
variable deltayz equal -0.02*yz
if "${dir} == 1" then    "change_box all x delta 0 ${delta} xy delta ${deltaxy} xz delta ${deltaxz} remap units box"
if "${dir} == 2" then    "change_box all y delta 0 ${delta} yz delta ${deltayz} remap units box"
if "${dir} == 3" then    "change_box all z delta 0 ${delta} remap units box"
if "${dir} == 4" then    "change_box all yz delta ${delta} remap units box"
if "${dir} == 5" then    "change_box all xz delta ${delta} remap units box"
if "${dir} == 6" then    "change_box all xy delta ${delta} remap units box"
change_box all xy delta ${delta} remap units box
change_box all xy delta -0.271757581976806 remap units box
Changing box ...
WARNING: Triclinic box skew is large. LAMMPS will run inefficiently. (src/domain.cpp:221)
  triclinic box = (-0.12710585 -0.070568049 -0.10333018) to (16.734896 13.517311 17.453492) with tilt (-9.8214272 -1.0844358 0.0034657957)

# Relax atoms positions

minimize ${etol} ${ftol} ${maxiter} ${maxeval}
minimize 0 ${ftol} ${maxiter} ${maxeval}
minimize 0 1e-10 ${maxiter} ${maxeval}
minimize 0 1e-10 100000 ${maxeval}
minimize 0 1e-10 100000 100000
Generated 6 of 6 mixed pair_coeff terms from arithmetic mixing rule
Neighbor list info ...
  update: every = 1 steps, delay = 0 steps, check = yes
  max neighbors/atom: 2000, page size: 100000
  master list distance cutoff = 7
  ghost atom cutoff = 7
  binsize = 3.5, bins = 8 4 6
  1 neighbor lists, perpetual/occasional/extra = 1 0 0
  (1) pair lj/cut, perpetual
      attributes: half, newton on
      pair build: half/bin/newton/tri
      stencil: half/bin/3d/tri
      bin: standard
WARNING: Inconsistent image flags
For more information see https://docs.lammps.org/err0027 (src/domain.cpp:1052)
Per MPI rank memory allocation (min/avg/max) = 19.53 | 19.53 | 19.53 Mbytes
   Step          Temp          E_pair         E_mol          TotEng         Press     
    250424   318.23872     -436.85276      716.58143      644.9432       4027.9338    
    250448   318.23872     -461.81002      615.37805      518.78256      343.07992    
Loop time of 0.0281825 on 1 procs for 24 steps with 386 atoms

100.0% CPU use with 1 MPI tasks x 1 OpenMP threads

Minimization stats:
  Stopping criterion = linesearch alpha is zero
  Energy initial, next-to-last, final = 
      279.728671127109    153.56802648782    153.56802648782
  Force two-norm initial, final = 190.3864 27.356772
  Force max component initial, final = 19.153711 3.7998442
  Final line search alpha, max atom move = 1.3341514e-11 5.0695674e-11
  Iterations, force evaluations = 24 105

MPI task timing breakdown:
Section |  min time  |  avg time  |  max time  |%varavg| %total
---------------------------------------------------------------
Pair    | 0.021938   | 0.021938   | 0.021938   |   0.0 | 77.84
Bond    | 0.0051988  | 0.0051988  | 0.0051988  |   0.0 | 18.45
Neigh   | 0          | 0          | 0          |   0.0 |  0.00
Comm    | 0.0006094  | 0.0006094  | 0.0006094  |   0.0 |  2.16
Output  | 0          | 0          | 0          |   0.0 |  0.00
Modify  | 0          | 0          | 0          |   0.0 |  0.00
Other   |            | 0.0004368  |            |       |  1.55

Nlocal:            386 ave         386 max         386 min
Histogram: 1 0 0 0 0 0 0 0 0 0
Nghost:           2452 ave        2452 max        2452 min
Histogram: 1 0 0 0 0 0 0 0 0 0
Neighs:          25219 ave       25219 max       25219 min
Histogram: 1 0 0 0 0 0 0 0 0 0

Total # of neighbors = 25219
Ave neighs/atom = 65.334197
Ave special neighs/atom = 6.1761658
Neighbor list builds = 0
Dangerous builds = 0

# Obtain new stress tensor

variable tmp equal pxx
variable pxx1 equal ${tmp}
variable pxx1 equal 1826.05498543823
variable tmp equal pyy
variable pyy1 equal ${tmp}
variable pyy1 equal 3618.59372130355
variable tmp equal pzz
variable pzz1 equal ${tmp}
variable pzz1 equal -4415.40894125604
variable tmp equal pxy
variable pxy1 equal ${tmp}
variable pxy1 equal 7175.97550667005
variable tmp equal pxz
variable pxz1 equal ${tmp}
variable pxz1 equal -1162.13220617594
variable tmp equal pyz
variable pyz1 equal ${tmp}
variable pyz1 equal 4643.37428418565

# Compute elastic constant from pressure tensor

variable C1neg equal ${d1}
variable C1neg equal -8.6742175981872
variable C2neg equal ${d2}
variable C2neg equal -0.608376467887051
variable C3neg equal ${d3}
variable C3neg equal -43.4496429639487
variable C4neg equal ${d4}
variable C4neg equal -2.70806293300385
variable C5neg equal ${d5}
variable C5neg equal 1.06675711643415
variable C6neg equal ${d6}
variable C6neg equal 32.0677494896472

# Reset box and simulation parameters

clear
OMP_NUM_THREADS environment is not set. Defaulting to 1 thread.
  using 1 OpenMP thread(s) per MPI task
box tilt large

The 'box' command has been removed and will be ignored

read_restart restart_333U-50C-9-vasp.equil
Reading restart file ...
  restart file = 10 Sep 2025, LAMMPS = 10 Sep 2025
  restoring atom style full from restart
  triclinic box = (-0.12710585 -0.070568049 -0.10333018) to (16.734896 13.517311 17.453492) with tilt (-9.5496696 -1.0844358 0.0034657957)
WARNING: Triclinic box skew is large. LAMMPS will run inefficiently. (src/domain.cpp:221)
  1 by 1 by 1 MPI processor grid
  restoring pair style lj/cut from restart
  restoring bond style harmonic from restart
  restoring angle style hybrid from restart
  restoring dihedral style harmonic from restart
  386 atoms
  411 bonds
  781 angles
  987 dihedrals
Finding 1-2 1-3 1-4 neighbors ...
  special bond factors lj:    0        0        1       
  special bond factors coul:  0        0        1       
     4 = max # of 1-2 neighbors
    10 = max # of 1-3 neighbors
    14 = max # of special neighbors
  special bonds CPU = 0.000 seconds
  read_restart CPU = 0.001 seconds
include ./input/angles_333U-50C-9-vasp.mod
angle_style hybrid fourier cosine/periodic
angle_coeff 1 fourier 157.882480        0.343737        0.374972        0.281246
angle_coeff 2 fourier 221.735285        0.343737        0.374972        0.281246
angle_coeff 3 fourier 83.380072        0.343737        0.374972        0.281246
angle_coeff 4 fourier 58.020602        0.343737        0.374972        0.281246
angle_coeff 5 fourier 114.246973        0.343737        0.374972        0.281246
angle_coeff 6 fourier 32.417871        0.343737        0.374972        0.281246
angle_coeff 7 fourier 90.420412        0.343737        0.374972        0.281246
angle_coeff 8 fourier 75.498766        0.343737        0.374972        0.281246
angle_coeff 9 cosine/periodic 88.853997              -1               3

# Positive deformation

variable delta equal ${up}*${len0}
variable delta equal 0.02*${len0}
variable delta equal 0.02*13.5878790988403
variable deltaxy equal ${up}*xy
variable deltaxy equal 0.02*xy
variable deltaxz equal ${up}*xz
variable deltaxz equal 0.02*xz
variable deltayz equal ${up}*yz
variable deltayz equal 0.02*yz
if "${dir} == 1" then    "change_box all x delta 0 ${delta} xy delta ${deltaxy} xz delta ${deltaxz} remap units box"
if "${dir} == 2" then    "change_box all y delta 0 ${delta} yz delta ${deltayz} remap units box"
if "${dir} == 3" then    "change_box all z delta 0 ${delta} remap units box"
if "${dir} == 4" then    "change_box all yz delta ${delta} remap units box"
if "${dir} == 5" then    "change_box all xz delta ${delta} remap units box"
if "${dir} == 6" then    "change_box all xy delta ${delta} remap units box"
change_box all xy delta ${delta} remap units box
change_box all xy delta 0.271757581976806 remap units box
Changing box ...
WARNING: Triclinic box skew is large. LAMMPS will run inefficiently. (src/domain.cpp:221)
  triclinic box = (-0.12710585 -0.070568049 -0.10333018) to (16.734896 13.517311 17.453492) with tilt (-9.277912 -1.0844358 0.0034657957)

# Relax atoms positions

minimize ${etol} ${ftol} ${maxiter} ${maxeval}
minimize 0 ${ftol} ${maxiter} ${maxeval}
minimize 0 1e-10 ${maxiter} ${maxeval}
minimize 0 1e-10 100000 ${maxeval}
minimize 0 1e-10 100000 100000
Generated 6 of 6 mixed pair_coeff terms from arithmetic mixing rule
Neighbor list info ...
  update: every = 1 steps, delay = 0 steps, check = yes
  max neighbors/atom: 2000, page size: 100000
  master list distance cutoff = 7
  ghost atom cutoff = 7
  binsize = 3.5, bins = 8 4 6
  1 neighbor lists, perpetual/occasional/extra = 1 0 0
  (1) pair lj/cut, perpetual
      attributes: half, newton on
      pair build: half/bin/newton/tri
      stencil: half/bin/3d/tri
      bin: standard
WARNING: Inconsistent image flags
For more information see https://docs.lammps.org/err0027 (src/domain.cpp:1052)
Per MPI rank memory allocation (min/avg/max) = 19.53 | 19.53 | 19.53 Mbytes
   Step          Temp          E_pair         E_mol          TotEng         Press     
    250424   318.23872     -433.46088      711.53418      643.28783      3346.0813    
    250449   318.23872     -467.78379      616.60538      514.03612     -1868.0092    
Loop time of 0.0298911 on 1 procs for 25 steps with 386 atoms

100.0% CPU use with 1 MPI tasks x 1 OpenMP threads

Minimization stats:
  Stopping criterion = linesearch alpha is zero
  Energy initial, next-to-last, final = 
      278.073299820906   148.821591670872   148.821591670872
  Force two-norm initial, final = 190.88527 24.937086
  Force max component initial, final = 17.263232 3.4972646
  Final line search alpha, max atom move = 1.3537208e-11 4.7343198e-11
  Iterations, force evaluations = 25 107

MPI task timing breakdown:
Section |  min time  |  avg time  |  max time  |%varavg| %total
---------------------------------------------------------------
Pair    | 0.023256   | 0.023256   | 0.023256   |   0.0 | 77.80
Bond    | 0.0055079  | 0.0055079  | 0.0055079  |   0.0 | 18.43
Neigh   | 0          | 0          | 0          |   0.0 |  0.00
Comm    | 0.00063037 | 0.00063037 | 0.00063037 |   0.0 |  2.11
Output  | 0          | 0          | 0          |   0.0 |  0.00
Modify  | 0          | 0          | 0          |   0.0 |  0.00
Other   |            | 0.0004972  |            |       |  1.66

Nlocal:            386 ave         386 max         386 min
Histogram: 1 0 0 0 0 0 0 0 0 0
Nghost:           2418 ave        2418 max        2418 min
Histogram: 1 0 0 0 0 0 0 0 0 0
Neighs:          25234 ave       25234 max       25234 min
Histogram: 1 0 0 0 0 0 0 0 0 0

Total # of neighbors = 25234
Ave neighs/atom = 65.373057
Ave special neighs/atom = 6.1761658
Neighbor list builds = 0
Dangerous builds = 0

# Obtain new stress tensor

variable tmp equal pe
variable e1 equal ${tmp}
variable e1 equal 148.821591670872
variable tmp equal press
variable p1 equal ${tmp}
variable p1 equal -1868.00916999271
variable tmp equal pxx
variable pxx1 equal ${tmp}
variable pxx1 equal -210.754744030056
variable tmp equal pyy
variable pyy1 equal ${tmp}
variable pyy1 equal -706.268229690229
variable tmp equal pzz
variable pzz1 equal ${tmp}
variable pzz1 equal -4687.00453625787
variable tmp equal pxy
variable pxy1 equal ${tmp}
variable pxy1 equal -4585.47138862126
variable tmp equal pxz
variable pxz1 equal ${tmp}
variable pxz1 equal -695.908888766267
variable tmp equal pyz
variable pyz1 equal ${tmp}
variable pyz1 equal 4252.06731511267

# Compute elastic constant from pressure tensor

variable C1pos equal ${d1}
variable C1pos equal 18.8582662455286
variable C2pos equal ${d2}
variable C2pos equal 22.2326862228559
variable C3pos equal ${d3}
variable C3pos equal 44.8076209389579
variable C4pos equal ${d4}
variable C4pos equal 4.66459777836875
variable C5pos equal ${d5}
variable C5pos equal -3.39787370348252
variable C6pos equal ${d6}
variable C6pos equal 26.7394849868094

# Combine positive and negative

variable C1${dir} equal 0.5*(${C1neg}+${C1pos})
variable C16 equal 0.5*(${C1neg}+${C1pos})
variable C16 equal 0.5*(-8.6742175981872+${C1pos})
variable C16 equal 0.5*(-8.6742175981872+18.8582662455286)
variable C2${dir} equal 0.5*(${C2neg}+${C2pos})
variable C26 equal 0.5*(${C2neg}+${C2pos})
variable C26 equal 0.5*(-0.608376467887051+${C2pos})
variable C26 equal 0.5*(-0.608376467887051+22.2326862228559)
variable C3${dir} equal 0.5*(${C3neg}+${C3pos})
variable C36 equal 0.5*(${C3neg}+${C3pos})
variable C36 equal 0.5*(-43.4496429639487+${C3pos})
variable C36 equal 0.5*(-43.4496429639487+44.8076209389579)
variable C4${dir} equal 0.5*(${C4neg}+${C4pos})
variable C46 equal 0.5*(${C4neg}+${C4pos})
variable C46 equal 0.5*(-2.70806293300385+${C4pos})
variable C46 equal 0.5*(-2.70806293300385+4.66459777836875)
variable C5${dir} equal 0.5*(${C5neg}+${C5pos})
variable C56 equal 0.5*(${C5neg}+${C5pos})
variable C56 equal 0.5*(1.06675711643415+${C5pos})
variable C56 equal 0.5*(1.06675711643415+-3.39787370348252)
variable C6${dir} equal 0.5*(${C6neg}+${C6pos})
variable C66 equal 0.5*(${C6neg}+${C6pos})
variable C66 equal 0.5*(32.0677494896472+${C6pos})
variable C66 equal 0.5*(32.0677494896472+26.7394849868094)

# Delete dir to make sure it is not reused

variable dir delete

# Output final values

variable C11all equal ${C11}
variable C11all equal 65.1768861327618
variable C22all equal ${C22}
variable C22all equal 74.6226707343555
variable C33all equal ${C33}
variable C33all equal 73.218511430322

variable C12all equal 0.5*(${C12}+${C21})
variable C12all equal 0.5*(33.7596095605426+${C21})
variable C12all equal 0.5*(33.7596095605426+33.8462983951437)
variable C13all equal 0.5*(${C13}+${C31})
variable C13all equal 0.5*(31.5694774222885+${C31})
variable C13all equal 0.5*(31.5694774222885+31.4936132270292)
variable C23all equal 0.5*(${C23}+${C32})
variable C23all equal 0.5*(33.8270464875824+${C32})
variable C23all equal 0.5*(33.8270464875824+35.1084374899404)

variable C44all equal ${C44}
variable C44all equal 34.4914381297178
variable C55all equal ${C55}
variable C55all equal 26.9938102457671
variable C66all equal ${C66}
variable C66all equal 29.4036172382283

variable C14all equal 0.5*(${C14}+${C41})
variable C14all equal 0.5*(-1.43167103295015+${C41})
variable C14all equal 0.5*(-1.43167103295015+-1.74707052300043)
variable C15all equal 0.5*(${C15}+${C51})
variable C15all equal 0.5*(-2.7274432990702+${C51})
variable C15all equal 0.5*(-2.7274432990702+-3.42681293719733)
variable C16all equal 0.5*(${C16}+${C61})
variable C16all equal 0.5*(5.0920243236707+${C61})
variable C16all equal 0.5*(5.0920243236707+5.82626049842843)

variable C24all equal 0.5*(${C24}+${C42})
variable C24all equal 0.5*(-0.0624474271244502+${C42})
variable C24all equal 0.5*(-0.0624474271244502+0.836815405715476)
variable C25all equal 0.5*(${C25}+${C52})
variable C25all equal 0.5*(2.3560970141137+${C52})
variable C25all equal 0.5*(2.3560970141137+3.26634027028619)
variable C26all equal 0.5*(${C26}+${C62})
variable C26all equal 0.5*(10.8121548774844+${C62})
variable C26all equal 0.5*(10.8121548774844+10.8985816691951)

variable C34all equal 0.5*(${C34}+${C43})
variable C34all equal 0.5*(4.69201136931+${C43})
variable C34all equal 0.5*(4.69201136931+4.829767468439)
variable C35all equal 0.5*(${C35}+${C53})
variable C35all equal 0.5*(1.10905042269625+${C53})
variable C35all equal 0.5*(1.10905042269625+2.22924616737233)
variable C36all equal 0.5*(${C36}+${C63})
variable C36all equal 0.5*(0.678988987504603+${C63})
variable C36all equal 0.5*(0.678988987504603+0.4261793635724)

variable C45all equal 0.5*(${C45}+${C54})
variable C45all equal 0.5*(-0.70498018902295+${C54})
variable C45all equal 0.5*(-0.70498018902295+-0.77918398857611)
variable C46all equal 0.5*(${C46}+${C64})
variable C46all equal 0.5*(0.97826742268245+${C64})
variable C46all equal 0.5*(0.97826742268245+1.11133376208845)
variable C56all equal 0.5*(${C56}+${C65})
variable C56all equal 0.5*(-1.16555829352418+${C65})
variable C56all equal 0.5*(-1.16555829352418+-1.3491853483493)

# Average moduli for cubic crystals

variable C11cubic equal (${C11all}+${C22all}+${C33all})/3.0
variable C11cubic equal (65.1768861327618+${C22all}+${C33all})/3.0
variable C11cubic equal (65.1768861327618+74.6226707343555+${C33all})/3.0
variable C11cubic equal (65.1768861327618+74.6226707343555+73.218511430322)/3.0
variable C12cubic equal (${C12all}+${C13all}+${C23all})/3.0
variable C12cubic equal (33.8029539778431+${C13all}+${C23all})/3.0
variable C12cubic equal (33.8029539778431+31.5315453246589+${C23all})/3.0
variable C12cubic equal (33.8029539778431+31.5315453246589+34.4677419887614)/3.0
variable C44cubic equal (${C44all}+${C55all}+${C66all})/3.0
variable C44cubic equal (34.4914381297178+${C55all}+${C66all})/3.0
variable C44cubic equal (34.4914381297178+26.9938102457671+${C66all})/3.0
variable C44cubic equal (34.4914381297178+26.9938102457671+29.4036172382283)/3.0

variable bulkmodulus equal (${C11cubic}+2*${C12cubic})/3.0
variable bulkmodulus equal (71.0060227658131+2*${C12cubic})/3.0
variable bulkmodulus equal (71.0060227658131+2*33.2674137637545)/3.0
variable shearmodulus1 equal ${C44cubic}
variable shearmodulus1 equal 30.2962885379044
variable shearmodulus2 equal (${C11cubic}-${C12cubic})/2.0
variable shearmodulus2 equal (71.0060227658131-${C12cubic})/2.0
variable shearmodulus2 equal (71.0060227658131-33.2674137637545)/2.0
variable poissonratio equal 1.0/(1.0+${C11cubic}/${C12cubic})
variable poissonratio equal 1.0/(1.0+71.0060227658131/${C12cubic})
variable poissonratio equal 1.0/(1.0+71.0060227658131/33.2674137637545)

print "Elastic Constant 1 1 = ${C11all}"
Elastic Constant 1 1 = 65.1768861327618
print "Elastic Constant 2 2 = ${C22all}"
Elastic Constant 2 2 = 74.6226707343555
print "Elastic Constant 3 3 = ${C33all}"
Elastic Constant 3 3 = 73.218511430322

print "Elastic Constant 1 2 = ${C12all}"
Elastic Constant 1 2 = 33.8029539778431
print "Elastic Constant 1 3 = ${C13all}"
Elastic Constant 1 3 = 31.5315453246589
print "Elastic Constant 2 3 = ${C23all}"
Elastic Constant 2 3 = 34.4677419887614

print "Elastic Constant 4 4 = ${C44all}"
Elastic Constant 4 4 = 34.4914381297178
print "Elastic Constant 5 5 = ${C55all}"
Elastic Constant 5 5 = 26.9938102457671
print "Elastic Constant 6 6 = ${C66all}"
Elastic Constant 6 6 = 29.4036172382283

print "Elastic Constant 1 4 = ${C14all}"
Elastic Constant 1 4 = -1.58937077797529
print "Elastic Constant 1 5 = ${C15all}"
Elastic Constant 1 5 = -3.07712811813377
print "Elastic Constant 1 6 = ${C16all}"
Elastic Constant 1 6 = 5.45914241104956

print "Elastic Constant 2 4 = ${C24all}"
Elastic Constant 2 4 = 0.387183989295513
print "Elastic Constant 2 5 = ${C25all}"
Elastic Constant 2 5 = 2.81121864219994
print "Elastic Constant 2 6 = ${C26all}"
Elastic Constant 2 6 = 10.8553682733397

print "Elastic Constant 3 4 = ${C34all}"
Elastic Constant 3 4 = 4.7608894188745
print "Elastic Constant 3 5 = ${C35all}"
Elastic Constant 3 5 = 1.66914829503429
print "Elastic Constant 3 6 = ${C36all}"
Elastic Constant 3 6 = 0.552584175538501

print "Elastic Constant 4 5 = ${C45all}"
Elastic Constant 4 5 = -0.74208208879953
print "Elastic Constant 4 6 = ${C46all}"
Elastic Constant 4 6 = 1.04480059238545
print "Elastic Constant 5 6 = ${C56all}"
Elastic Constant 5 6 = -1.25737182093674

print "Bulk Modulus = ${bulkmodulus} ${cunits}"
Bulk Modulus = 45.846950097774 GPa
print "Shear Modulus 1 = ${shearmodulus1} ${cunits}"
Shear Modulus 1 = 30.2962885379044 GPa
print "Shear Modulus 2 = ${shearmodulus2} ${cunits}"
Shear Modulus 2 = 18.8693045010293 GPa
print "Poisson Ratio = ${poissonratio}"
Poisson Ratio = 0.319040158941355

variable rho equal density
print "density (g/cm^3) = ${rho}"
density (g/cm^3) = 1.68404518341314
Total wall time: 0:01:10
