units           real
atom_style      full
boundary        p p p

pair_style      lj/cut 5.000
bond_style      harmonic
angle_style     hybrid cosine/periodic fourier
dihedral_style  harmonic

dielectric      1.0
special_bonds   lj/coul 0.0 0.0 1.0
pair_modify     tail yes mix arithmetic
box tilt        large

The 'box' command has been removed and will be ignored

read_data       ./dat/data.333-EXP-6-vasp
Reading data file ...
  triclinic box = (0 0 0) to (14.494141 13.039092 16.770982) with tilt (-7.39153 0.991947 1.03078)
WARNING: Triclinic box skew is large. LAMMPS will run inefficiently. (src/domain.cpp:221)
  1 by 1 by 1 MPI processor grid
  reading atoms ...
  274 atoms
  scanning bonds ...
  4 = max bonds/atom
  scanning angles ...
  6 = max angles/atom
  scanning dihedrals ...
  24 = max dihedrals/atom
  triclinic box = (0 0 0) to (14.494141 13.039092 16.770982) with tilt (-7.39153 0.991947 1.03078)
WARNING: Triclinic box skew is large. LAMMPS will run inefficiently. (src/domain.cpp:221)
  1 by 1 by 1 MPI processor grid
  reading bonds ...
  294 bonds
  reading angles ...
  557 angles
  reading dihedrals ...
  696 dihedrals
Finding 1-2 1-3 1-4 neighbors ...
  special bond factors lj:    0        0        1       
  special bond factors coul:  0        0        1       
     4 = max # of 1-2 neighbors
     8 = max # of 1-3 neighbors
    12 = max # of special neighbors
  special bonds CPU = 0.000 seconds
  read_data CPU = 0.007 seconds

#### Atom Groupings ####
group           fram     id   1:274
274 atoms in group fram
#### END Atom Groupings ####

compute am all property/atom mass
dump        atom_pos all extxyz 100 ./output/333-EXP-6-vasp.lammpstrj
dump_modify atom_pos element Si C O H mass yes
thermo          1000
thermo_style    custom step temp pe ke etotal press vol density

variable up equal 2e-2
variable cfac equal 1.0e-4
variable cunits string GPa

# Define minimization parameters
variable etol equal 0.0
variable ftol equal 1.0e-10
variable maxiter equal 100000
variable maxeval equal 100000
variable dmax equal 1.0e-2

variable temp equal 300.0
variable thermal_damp index 100.0
variable pressure_damp index 500.0

fix relax all box/relax aniso 0.0 vmax 0.001
unfix relax
minimize ${etol} ${ftol} ${maxiter} ${maxeval}
minimize 0 ${ftol} ${maxiter} ${maxeval}
minimize 0 1e-10 ${maxiter} ${maxeval}
minimize 0 1e-10 100000 ${maxeval}
minimize 0 1e-10 100000 100000
Generated 6 of 6 mixed pair_coeff terms from arithmetic mixing rule
Neighbor list info ...
  update: every = 1 steps, delay = 0 steps, check = yes
  max neighbors/atom: 2000, page size: 100000
  master list distance cutoff = 7
  ghost atom cutoff = 7
  binsize = 3.5, bins = 7 5 5
  1 neighbor lists, perpetual/occasional/extra = 1 0 0
  (1) pair lj/cut, perpetual
      attributes: half, newton on
      pair build: half/bin/newton/tri
      stencil: half/bin/3d/tri
      bin: standard
WARNING: Inconsistent image flags
For more information see https://docs.lammps.org/err0027 (src/domain.cpp:1052)
Per MPI rank memory allocation (min/avg/max) = 17.48 | 17.48 | 17.48 Mbytes
   Step          Temp          PotEng         KinEng         TotEng         Press          Volume        Density    
         0   0              903.0622       0              903.0622       83613.046      3169.5552      1.5987458    
       122   0             -55.822182      0             -55.822182      14197.031      3169.5552      1.5987458    
Loop time of 0.0563011 on 1 procs for 122 steps with 274 atoms

99.9% CPU use with 1 MPI tasks x 1 OpenMP threads

Minimization stats:
  Stopping criterion = linesearch alpha is zero
  Energy initial, next-to-last, final = 
       903.06220260804   -55.822182388451   -55.822182388451
  Force two-norm initial, final = 757.65712 17.452515
  Force max component initial, final = 86.772061 4.2494746
  Final line search alpha, max atom move = 3.8430685e-11 1.6331022e-10
  Iterations, force evaluations = 122 299

MPI task timing breakdown:
Section |  min time  |  avg time  |  max time  |%varavg| %total
---------------------------------------------------------------
Pair    | 0.037048   | 0.037048   | 0.037048   |   0.0 | 65.80
Bond    | 0.010551   | 0.010551   | 0.010551   |   0.0 | 18.74
Neigh   | 0.005358   | 0.005358   | 0.005358   |   0.0 |  9.52
Comm    | 0.0014674  | 0.0014674  | 0.0014674  |   0.0 |  2.61
Output  | 0.0004168  | 0.0004168  | 0.0004168  |   0.0 |  0.74
Modify  | 0          | 0          | 0          |   0.0 |  0.00
Other   |            | 0.00146    |            |       |  2.59

Nlocal:            274 ave         274 max         274 min
Histogram: 1 0 0 0 0 0 0 0 0 0
Nghost:           1990 ave        1990 max        1990 min
Histogram: 1 0 0 0 0 0 0 0 0 0
Neighs:          15962 ave       15962 max       15962 min
Histogram: 1 0 0 0 0 0 0 0 0 0

Total # of neighbors = 15962
Ave neighs/atom = 58.255474
Ave special neighs/atom = 6.2116788
Neighbor list builds = 3
Dangerous builds = 0

# Generating the full routine as described in the paper for UFF
fix nvt_relax   all nvt temp 300 300 ${thermal_damp}
fix nvt_relax   all nvt temp 300 300 100.0
run 100000      # 100 picoseconds
Generated 6 of 6 mixed pair_coeff terms from arithmetic mixing rule
WARNING: Inconsistent image flags
For more information see https://docs.lammps.org/err0027 (src/domain.cpp:1052)
Per MPI rank memory allocation (min/avg/max) = 17.41 | 17.41 | 17.41 Mbytes
   Step          Temp          PotEng         KinEng         TotEng         Press          Volume        Density    
       122   0             -55.822182      0             -55.822182      14197.031      3169.5552      1.5987458    
      1000   139.07217      19.879042      113.17153      133.05057      19841.757      3169.5552      1.5987458    
      2000   322.99397      172.18011      262.83995      435.02005      19306.197      3169.5552      1.5987458    
      3000   285.27113      123.30391      232.14256      355.44648      11426.456      3169.5552      1.5987458    
      4000   293.29886      156.66563      238.67521      395.34084      17485.713      3169.5552      1.5987458    
      5000   307.44121      124.93765      250.18371      375.12136      9343.7437      3169.5552      1.5987458    
      6000   313.51971      129.88144      255.13015      385.0116       16658.282      3169.5552      1.5987458    
      7000   303.29037      145.83982      246.80592      392.64574      22676.179      3169.5552      1.5987458    
      8000   305.96408      113.20687      248.98168      362.18855      14698.64       3169.5552      1.5987458    
      9000   282.37543      147.62739      229.78615      377.41354      18398.798      3169.5552      1.5987458    
     10000   313.18916      161.82484      254.86117      416.68601      21052.384      3169.5552      1.5987458    
     11000   288.08378      131.53984      234.43138      365.97122      12445.77       3169.5552      1.5987458    
     12000   299.25225      136.06365      243.51986      379.58351      18186.293      3169.5552      1.5987458    
     13000   319.16836      122.83927      259.72681      382.56607      15419.818      3169.5552      1.5987458    
     14000   319.27317      122.8056       259.8121       382.6177       10265.111      3169.5552      1.5987458    
     15000   288.42741      155.48306      234.71102      390.19408      7304.8359      3169.5552      1.5987458    
     16000   288.30044      137.50712      234.6077       372.11482      15816.129      3169.5552      1.5987458    
     17000   319.88475      147.8611       260.30978      408.17088      8093.7101      3169.5552      1.5987458    
     18000   301.94942      135.03168      245.7147       380.74639      13197.247      3169.5552      1.5987458    
     19000   271.04956      116.72232      220.5696       337.29192      11447.613      3169.5552      1.5987458    
     20000   309.14498      137.05395      251.57018      388.62413      16285.215      3169.5552      1.5987458    
     21000   288.21775      136.2635       234.54041      370.80391      9842.5665      3169.5552      1.5987458    
     22000   306.81187      141.83088      249.67158      391.50246      12870.623      3169.5552      1.5987458    
     23000   283.46596      134.54134      230.67358      365.21493      18587.294      3169.5552      1.5987458    
     24000   306.96672      136.00432      249.79759      385.80191      16000.195      3169.5552      1.5987458    
     25000   298.42106      122.83197      242.84346      365.67543      15990.95       3169.5552      1.5987458    
     26000   302.2358       138.29086      245.94775      384.23861      17265.724      3169.5552      1.5987458    
     27000   320.04343      115.99636      260.43891      376.43527      13958.785      3169.5552      1.5987458    
     28000   292.18572      137.4          237.76938      375.16938      20215.968      3169.5552      1.5987458    
     29000   283.75166      131.36768      230.90608      362.27376      13712.476      3169.5552      1.5987458    
     30000   307.13278      134.04405      249.93272      383.97676      15853.273      3169.5552      1.5987458    
     31000   316.31805      151.91397      257.40734      409.32131      14035.81       3169.5552      1.5987458    
     32000   291.49799      124.50344      237.20973      361.71317      15383.31       3169.5552      1.5987458    
     33000   323.04881      143.53042      262.88457      406.41499      20120.793      3169.5552      1.5987458    
     34000   291.62612      129.94277      237.314        367.25677      15500.88       3169.5552      1.5987458    
     35000   294.04307      120.79278      239.28082      360.07361      16204.563      3169.5552      1.5987458    
     36000   323.52746      131.56179      263.27407      394.83587      10720.983      3169.5552      1.5987458    
     37000   318.80596      117.45334      259.4319       376.88524      18431.313      3169.5552      1.5987458    
     38000   281.99806      109.36793      229.47907      338.847        14282.792      3169.5552      1.5987458    
     39000   301.55951      134.96175      245.39741      380.35916      14679.597      3169.5552      1.5987458    
     40000   317.18303      120.93778      258.11123      379.049        14792.879      3169.5552      1.5987458    
     41000   277.83657      137.3287       226.09261      363.42131      18157.218      3169.5552      1.5987458    
     42000   298.01193      141.12583      242.51053      383.63636      10703.494      3169.5552      1.5987458    
     43000   296.86742      139.59736      241.57917      381.17653      4758.8236      3169.5552      1.5987458    
     44000   300.80161      114.81517      244.78066      359.59583      15952.266      3169.5552      1.5987458    
     45000   309.43634      135.09052      251.80727      386.89779      9149.0782      3169.5552      1.5987458    
     46000   310.25092      127.92094      252.47015      380.39109      16748.653      3169.5552      1.5987458    
     47000   302.2478       126.45821      245.95751      372.41572      11085.158      3169.5552      1.5987458    
     48000   291.50688      140.18778      237.21698      377.40476      12209.629      3169.5552      1.5987458    
     49000   307.27415      123.50214      250.04777      373.54991      12090.998      3169.5552      1.5987458    
     50000   277.27267      133.53967      225.63372      359.17339      12883.827      3169.5552      1.5987458    
     51000   298.81456      143.56697      243.16368      386.73065      11846.445      3169.5552      1.5987458    
     52000   283.0163       142.65912      230.30767      372.96679      7340.9506      3169.5552      1.5987458    
     53000   274.68048      126.04234      223.5243       349.56664      16902.519      3169.5552      1.5987458    
     54000   294.98356      144.55224      240.04616      384.5984       10254.972      3169.5552      1.5987458    
     55000   281.39887      113.88045      228.99146      342.87192      11754.37       3169.5552      1.5987458    
     56000   302.05442      149.2204       245.80015      395.02054      18569.757      3169.5552      1.5987458    
     57000   299.4678       145.00153      243.69526      388.69679      16266.433      3169.5552      1.5987458    
     58000   307.89447      120.87432      250.55255      371.42687      14887.479      3169.5552      1.5987458    
     59000   301.73333      156.35196      245.53886      401.89081      15705.349      3169.5552      1.5987458    
     60000   288.56559      148.31257      234.82347      383.13603      10361.57       3169.5552      1.5987458    
     61000   301.16093      157.29068      245.07306      402.36375      16271.59       3169.5552      1.5987458    
     62000   281.07599      142.27759      228.72872      371.00631      11606.856      3169.5552      1.5987458    
     63000   304.06691      135.98052      247.43784      383.41836      18340.78       3169.5552      1.5987458    
     64000   288.05027      122.12044      234.40412      356.52456      17596.781      3169.5552      1.5987458    
     65000   308.89871      121.8661       251.36977      373.23587      10851.517      3169.5552      1.5987458    
     66000   292.811        125.41594      238.27821      363.69416      15373.993      3169.5552      1.5987458    
     67000   293.73314      127.87347      239.02862      366.90209      16621.275      3169.5552      1.5987458    
     68000   316.19975      142.44804      257.31107      399.75912      15474.493      3169.5552      1.5987458    
     69000   287.11885      137.76728      233.64616      371.41344      19191.872      3169.5552      1.5987458    
     70000   300.23273      110.84521      244.31773      355.16294      17750.549      3169.5552      1.5987458    
     71000   303.36186      138.26662      246.8641       385.13072      10535.824      3169.5552      1.5987458    
     72000   304.0024       128.67634      247.38534      376.06168      15530.178      3169.5552      1.5987458    
     73000   303.98182      112.34557      247.3686       359.71417      13046.128      3169.5552      1.5987458    
     74000   301.47602      156.86217      245.32947      402.19164      10886.531      3169.5552      1.5987458    
     75000   303.97412      125.54006      247.36233      372.90238      9289.8038      3169.5552      1.5987458    
     76000   304.70713      127.37872      247.95882      375.33754      6481.0279      3169.5552      1.5987458    
     77000   322.65443      146.93256      262.56364      409.4962       11983.487      3169.5552      1.5987458    
     78000   317.51444      125.71856      258.38091      384.09947      15668.991      3169.5552      1.5987458    
     79000   288.60689      122.61074      234.85707      357.46781      11515.31       3169.5552      1.5987458    
     80000   293.33091      144.73814      238.70129      383.43944      19531.204      3169.5552      1.5987458    
     81000   283.37222      119.74477      230.5973       350.34207      9025.566       3169.5552      1.5987458    
     82000   294.54046      128.37601      239.68558      368.06159      19557.71       3169.5552      1.5987458    
     83000   315.02655      130.42869      256.35637      386.78506      15015.391      3169.5552      1.5987458    
     84000   300.93871      115.17347      244.89223      360.0657       14364.145      3169.5552      1.5987458    
     85000   335.74752      122.80865      273.21828      396.02693      13573.384      3169.5552      1.5987458    
     86000   299.61864      135.15625      243.81801      378.97426      17486.676      3169.5552      1.5987458    
     87000   283.5547       142.39113      230.74579      373.13692      14948.272      3169.5552      1.5987458    
     88000   315.09695      155.48874      256.41365      411.90239      10780.738      3169.5552      1.5987458    
     89000   291.94149      122.51743      237.57064      360.08807      10766.424      3169.5552      1.5987458    
     90000   307.58978      130.03515      250.30461      380.33976      13685.072      3169.5552      1.5987458    
     91000   296.02166      154.29912      240.89093      395.19005      15971.409      3169.5552      1.5987458    
     92000   305.49652      150.49157      248.6012       399.09277      16955.678      3169.5552      1.5987458    
     93000   295.41501      133.84176      240.39726      374.23901      5602.1944      3169.5552      1.5987458    
     94000   329.14391      133.52262      267.84452      401.36715      18332.972      3169.5552      1.5987458    
     95000   301.08373      122.56572      245.01024      367.57596      20055.123      3169.5552      1.5987458    
     96000   316.27239      137.38195      257.37018      394.75213      9078.3262      3169.5552      1.5987458    
     97000   296.00319      126.0919       240.8759       366.96779      12652.073      3169.5552      1.5987458    
     98000   284.07619      127.89411      231.17017      359.06427      15979.75       3169.5552      1.5987458    
     99000   301.17508      128.58857      245.08458      373.67316      15679.124      3169.5552      1.5987458    
    100000   292.04011      126.22948      237.65089      363.88037      15375.653      3169.5552      1.5987458    
    100122   288.39293      138.16597      234.68296      372.84893      18467.986      3169.5552      1.5987458    
Loop time of 18.6402 on 1 procs for 100000 steps with 274 atoms

Performance: 463.513 ns/day, 0.052 hours/ns, 5364.737 timesteps/s, 1.470 Matom-step/s
99.7% CPU use with 1 MPI tasks x 1 OpenMP threads

MPI task timing breakdown:
Section |  min time  |  avg time  |  max time  |%varavg| %total
---------------------------------------------------------------
Pair    | 10.569     | 10.569     | 10.569     |   0.0 | 56.70
Bond    | 3.0122     | 3.0122     | 3.0122     |   0.0 | 16.16
Neigh   | 3.6692     | 3.6692     | 3.6692     |   0.0 | 19.68
Comm    | 0.5232     | 0.5232     | 0.5232     |   0.0 |  2.81
Output  | 0.44332    | 0.44332    | 0.44332    |   0.0 |  2.38
Modify  | 0.30663    | 0.30663    | 0.30663    |   0.0 |  1.65
Other   |            | 0.1168     |            |       |  0.63

Nlocal:            274 ave         274 max         274 min
Histogram: 1 0 0 0 0 0 0 0 0 0
Nghost:           2005 ave        2005 max        2005 min
Histogram: 1 0 0 0 0 0 0 0 0 0
Neighs:          15978 ave       15978 max       15978 min
Histogram: 1 0 0 0 0 0 0 0 0 0

Total # of neighbors = 15978
Ave neighs/atom = 58.313869
Ave special neighs/atom = 6.2116788
Neighbor list builds = 1952
Dangerous builds = 0
unfix           nvt_relax

fix npt_relax   all npt temp 300 300 ${thermal_damp} iso 0 0 ${pressure_damp}
fix npt_relax   all npt temp 300 300 100.0 iso 0 0 ${pressure_damp}
fix npt_relax   all npt temp 300 300 100.0 iso 0 0 500.0
run 100000      # 100 picoseconds
Generated 6 of 6 mixed pair_coeff terms from arithmetic mixing rule
WARNING: Inconsistent image flags
For more information see https://docs.lammps.org/err0027 (src/domain.cpp:1052)
Per MPI rank memory allocation (min/avg/max) = 17.43 | 17.43 | 17.43 Mbytes
   Step          Temp          PotEng         KinEng         TotEng         Press          Volume        Density    
    100122   288.39293      138.16597      234.68296      372.84893      18467.986      3169.5552      1.5987458    
    101000   316.03793      124.47293      257.17939      381.65231     -5946.5127      3391.814       1.4939832    
    102000   311.00652      117.26828      253.08502      370.3533      -2683.145       3399.7601      1.4904914    
    103000   272.44105      118.53615      221.70194      340.23809     -3183.8503      3395.0741      1.4925486    
    104000   293.31794      123.96894      238.69074      362.65968      4807.3275      3449.3288      1.4690722    
    105000   317.54014      96.698628      258.40183      355.10046      1197.6767      3392.1489      1.4938357    
    106000   319.44333      174.36042      259.95057      434.31099      1721.4293      3441.743       1.4723102    
    107000   318.45343      92.393479      259.14502      351.5385       3007.7797      3394.5332      1.4927864    
    108000   307.43485      109.84308      250.17853      360.02162     -6742.3016      3368.4155      1.5043611    
    109000   296.60678      88.412204      241.36707      329.77928      1040.2912      3369.3577      1.5039404    
    110000   304.55029      118.15209      247.83119      365.98328      5558.4758      3370.1077      1.5036057    
    111000   284.12939      85.266664      231.21346      316.48012      1259.2902      3381.1495      1.4986954    
    112000   320.34812      118.84747      260.68685      379.53432     -3133.4664      3404.5431      1.4883974    
    113000   301.07407      94.865433      245.00238      339.86781     -1170.6767      3377.5959      1.5002722    
    114000   329.58413      124.92377      268.20276      393.12653      4807.5336      3390.6666      1.4944888    
    115000   295.95925      103.38767      240.84013      344.22781      3110.2217      3402.4591      1.4893091    
    116000   290.35212      101.51248      236.27728      337.78976      4574.8875      3394.1476      1.492956     
    117000   296.54822      111.4805       241.31942      352.79992      3307.3387      3386.5005      1.4963273    
    118000   296.11259      112.85289      240.96492      353.81781     -4037.3673      3429.9086      1.4773901    
    119000   308.33169      104.67375      250.90835      355.5821       5051.4706      3437.7581      1.4740168    
    120000   301.35436      115.15264      245.23047      360.38311     -7038.2988      3399.3577      1.4906678    
    121000   287.53504      83.507547      233.98484      317.49239     -4100.0747      3401.7813      1.4896058    
    122000   312.68096      105.5511       254.44762      359.99872     -7094.3351      3446.5005      1.4702778    
    123000   276.5757       113.53665      225.06655      338.6032       3854.7176      3393.8239      1.4930985    
    124000   303.72938      123.49282      247.16317      370.65598     -2198.3547      3411.5993      1.485319     
    125000   278.80328      106.82392      226.87928      333.70319     -1850.6582      3410.3231      1.4858748    
    126000   284.92511      110.99517      231.86098      342.85615     -8859.4375      3429.9132      1.4773882    
    127000   296.80212      122.29926      241.52603      363.82529      8733.5246      3327.2885      1.5229557    
    128000   298.02627      123.95761      242.5222       366.4798      -2244.8954      3360.8999      1.5077251    
    129000   278.26283      110.46606      226.43947      336.90553     -1419.8953      3427.1528      1.4785781    
    130000   282.00701      121.03152      229.48635      350.51787     -1401.4423      3391.4466      1.4941451    
    131000   307.23542      108.92434      250.01625      358.94059     -3325.5399      3441.332       1.472486     
    132000   294.26646      92.961155      239.46261      332.42376      3881.9969      3359.9717      1.5081416    
    133000   313.2916       109.69246      254.94453      364.63699     -1846.7354      3368.8644      1.5041606    
    134000   293.12886      124.75964      238.53688      363.29652     -10171.205      3442.5161      1.4719795    
    135000   270.26137      108.45801      219.9282       328.38621     -5570.9055      3390.6604      1.4944915    
    136000   316.9458       105.61932      257.91817      363.53749      394.55718      3374.8457      1.5014948    
    137000   274.85377      109.83293      223.66532      333.49825      3849.2203      3363.4715      1.5065723    
    138000   308.98635      116.26025      251.44109      367.70134     -1097.7364      3406.4862      1.4875484    
    139000   332.93766      122.67484      270.93173      393.60657      3820.9882      3408.4897      1.4866741    
    140000   276.32175      121.86438      224.85991      346.72429      2360.9058      3420.4884      1.4814589    
    141000   303.28596      109.55921      246.80233      356.36153      5856.3016      3357.5426      1.5092327    
    142000   310.95647      116.41342      253.0443       369.45771     -601.2869       3367.8256      1.5046246    
    143000   282.95708      120.73934      230.25948      350.99882     -3898.0139      3416.7444      1.4830823    
    144000   294.02949      116.22971      239.26977      355.49948      546.65751      3380.9758      1.4987724    
    145000   308.99578      78.241329      251.44876      329.69009      1308.6415      3359.1705      1.5085013    
    146000   298.42533      117.43057      242.84694      360.27751      1904.3178      3387.275       1.4959852    
    147000   294.3153       111.28122      239.50236      350.78358     -743.3648       3385.0426      1.4969718    
    148000   321.31973      141.47255      261.47751      402.95007     -3325.2439      3372.6266      1.5024827    
    149000   303.64088      113.09305      247.09115      360.1842       805.15089      3409.7023      1.4861453    
    150000   322.10215      109.00843      262.11421      371.12264      2069.5501      3377.8442      1.5001619    
    151000   287.7806       89.758141      234.18467      323.94281     -999.47629      3373.0499      1.5022942    
    152000   287.99704      126.69457      234.3608       361.05537      5334.5555      3390.7837      1.4944371    
    153000   281.28981      83.839247      228.90272      312.74197      2205.2789      3367.6459      1.5047049    
    154000   285.92722      124.36656      232.67646      357.04302      510.04358      3380.3307      1.4990584    
    155000   295.92598      117.59313      240.81306      358.40619     -616.00097      3370.052       1.5036305    
    156000   290.01579      99.78248       236.00358      335.78606      7153.3303      3360.0411      1.5081105    
    157000   320.37572      105.74616      260.70932      366.45547     -3940.1773      3404.1765      1.4885577    
    158000   290.34761      106.08376      236.2736       342.35736     -2926.6095      3455.1654      1.4665906    
    159000   322.81431      123.07043      262.69374      385.76417     -1708.2586      3439.1033      1.4734402    
    160000   295.20787      127.66695      240.22869      367.89564      948.72565      3352.4571      1.5115222    
    161000   279.72187      87.294195      227.62679      314.92098      1627.1569      3366.1511      1.505373     
    162000   306.62811      125.80883      249.52205      375.33088     -5000.0577      3442.5391      1.4719697    
    163000   294.43203      92.956447      239.59734      332.55379      8101.3505      3336.0352      1.5189627    
    164000   297.42216      112.18203      242.0306       354.21263     -2821.3765      3373.6865      1.5020107    
    165000   288.93423      140.66265      235.12345      375.7861       578.06301      3414.0958      1.4842328    
    166000   286.32382      93.533825      232.9992       326.53302     -3267.1415      3379.9431      1.4992303    
    167000   313.43797      123.32703      255.06364      378.39067     -4366.0238      3359.7991      1.5082191    
    168000   315.92662      91.484293      257.0888       348.5731       312.61385      3391.8026      1.4939882    
    169000   316.60029      114.36814      257.63702      372.00516     -2097.7327      3392.8612      1.4935221    
    170000   285.55813      101.43886      232.37611      333.81497     -2221.2978      3383.0389      1.4978584    
    171000   308.14556      113.12665      250.75688      363.88353     -4080.6888      3395.3976      1.4924064    
    172000   295.7162       87.60644       240.64236      328.2488       5938.9797      3350.4372      1.5124334    
    173000   315.87806      101.10241      257.04929      358.15171     -4412.7708      3440.3464      1.4729078    
    174000   311.00198      119.86052      253.08133      372.94185     -1772.0505      3384.1422      1.4973701    
    175000   293.2329       112.9508       238.62154      351.57234      3929.2912      3333.981       1.5198986    
    176000   326.15066      109.46542      265.40874      374.87416      1207.6222      3375.1621      1.501354     
    177000   302.53115      99.913328      246.1881       346.10142     -5976.3896      3373.5921      1.5020527    
    178000   304.88785      102.92628      248.10588      351.03216     -4348.9687      3417.3384      1.4828245    
    179000   297.18147      101.52412      241.83473      343.35885     -8637.419       3403.8799      1.4886874    
    180000   297.49601      118.8223       242.09069      360.91299     -3235.7723      3435.3851      1.475035     
    181000   304.85262      86.54023       248.07722      334.61745     -418.23477      3366.0862      1.5054021    
    182000   300.55475      98.910631      244.57978      343.49041      3645.8347      3419.8508      1.4817351    
    183000   321.88234      126.57354      261.93534      388.50889     -2265.3663      3361.6487      1.5073893    
    184000   320.01214      99.12483       260.41345      359.53828      1097.4828      3406.563       1.4875149    
    185000   302.2337       107.20682      245.94604      353.15286     -6152.3646      3445.2312      1.4708195    
    186000   320.36589      122.31993      260.70131      383.02123     -9980.9406      3435.4277      1.4750167    
    187000   290.72663      99.267486      236.58204      335.84952     -457.53677      3434.0966      1.4755884    
    188000   299.94268      109.80409      244.0817       353.88579     -7078.1982      3383.5649      1.4976255    
    189000   280.96544      107.32648      228.63875      335.96523     -2472.5009      3434.3172      1.4754936    
    190000   283.1241       129.8386       230.39539      360.23399     -4529.0436      3388.9507      1.4952454    
    191000   296.47966      87.916774      241.26363      329.1804      -373.57479      3361.7534      1.5073423    
    192000   292.13138      116.26994      237.72516      353.9951      -2365.4863      3396.3766      1.4919762    
    193000   300.15652      106.29999      244.25571      350.5557       418.73534      3328.288       1.5224984    
    194000   293.23389      95.492504      238.62234      334.11485     -3926.8709      3435.8386      1.4748403    
    195000   299.53456      126.81979      243.74959      370.56937      1902.6326      3392.2967      1.4937706    
    196000   294.69013      100.8391       239.80738      340.64648      414.20718      3378.5569      1.4998455    
    197000   302.51466      123.90776      246.17468      370.08244     -6106.2922      3455.142       1.4666006    
    198000   292.4361       104.1714       237.97314      342.14453      1146.8886      3417.2521      1.482862     
    199000   301.81599      93.270401      245.60612      338.87652     -2266.9764      3358.3196      1.5088836    
    200000   307.49826      112.93776      250.23013      363.16789      3964.7544      3345.8875      1.51449      
    200122   292.8995       112.47981      238.35023      350.83004     -620.92376      3359.5162      1.5083461    
Loop time of 17.7138 on 1 procs for 100000 steps with 274 atoms

Performance: 487.755 ns/day, 0.049 hours/ns, 5645.311 timesteps/s, 1.547 Matom-step/s
99.8% CPU use with 1 MPI tasks x 1 OpenMP threads

MPI task timing breakdown:
Section |  min time  |  avg time  |  max time  |%varavg| %total
---------------------------------------------------------------
Pair    | 8.9939     | 8.9939     | 8.9939     |   0.0 | 50.77
Bond    | 3.536      | 3.536      | 3.536      |   0.0 | 19.96
Neigh   | 3.6239     | 3.6239     | 3.6239     |   0.0 | 20.46
Comm    | 0.44791    | 0.44791    | 0.44791    |   0.0 |  2.53
Output  | 0.39393    | 0.39393    | 0.39393    |   0.0 |  2.22
Modify  | 0.6057     | 0.6057     | 0.6057     |   0.0 |  3.42
Other   |            | 0.1124     |            |       |  0.63

Nlocal:            274 ave         274 max         274 min
Histogram: 1 0 0 0 0 0 0 0 0 0
Nghost:           1914 ave        1914 max        1914 min
Histogram: 1 0 0 0 0 0 0 0 0 0
Neighs:          15097 ave       15097 max       15097 min
Histogram: 1 0 0 0 0 0 0 0 0 0

Total # of neighbors = 15097
Ave neighs/atom = 55.09854
Ave special neighs/atom = 6.2116788
Neighbor list builds = 2246
Dangerous builds = 0
unfix           npt_relax

# fix nvt_heat    all nvt temp 300 1000 ${thermal_damp}
# run 100000      # 100 picoseconds
# unfix           nvt_heat
#
# fix npt_heat    all npt temp 1000 1000 ${thermal_damp} iso 0 0 ${pressure_damp}
# run 100000      # 100 picoseconds
# unfix           npt_heat
#
# fix cooling_npt all npt temp 1000 300 ${thermal_damp} iso 0 0 ${pressure_damp}
# run 700000      # 700 picoseconds
# unfix           cooling_npt
#
# fix npt_final   all npt temp 300 300 ${thermal_damp} iso 0 0 100
# run 100000      # 100 picoseconds
# unfix           npt_final

# density computation
variable rho equal density
fix integrate  all npt temp ${temp} ${temp} ${thermal_damp} iso 0 0 ${pressure_damp}
fix integrate  all npt temp 300 ${temp} ${thermal_damp} iso 0 0 ${pressure_damp}
fix integrate  all npt temp 300 300 ${thermal_damp} iso 0 0 ${pressure_damp}
fix integrate  all npt temp 300 300 100.0 iso 0 0 ${pressure_damp}
fix integrate  all npt temp 300 300 100.0 iso 0 0 500.0
fix rho50k all ave/time 10 5000 50000 v_rho mode scalar ave one
run 50000
Generated 6 of 6 mixed pair_coeff terms from arithmetic mixing rule
WARNING: Inconsistent image flags
For more information see https://docs.lammps.org/err0027 (src/domain.cpp:1052)
Per MPI rank memory allocation (min/avg/max) = 17.43 | 17.43 | 17.43 Mbytes
   Step          Temp          PotEng         KinEng         TotEng         Press          Volume        Density    
    200122   292.8995       112.47981      238.35023      350.83004     -620.92376      3359.5162      1.5083461    
    201000   332.64028      107.06626      270.68973      377.75599      5060.0408      3408.5699      1.4866391    
    202000   287.45161      119.23855      233.91695      353.1555      -670.6085       3369.3571      1.5039407    
    203000   305.60065      125.24155      248.68593      373.92748     -3061.5989      3437.5849      1.4740911    
    204000   311.70728      101.66011      253.65527      355.31538      524.922        3390.791       1.4944339    
    205000   310.80959      103.47369      252.92477      356.39847     -2002.494       3397.0137      1.4916964    
    206000   307.62202      118.10358      250.33085      368.43443      5877.8295      3368.1469      1.504481     
    207000   299.56551      97.242561      243.77477      341.01733     -2985.5115      3402.4092      1.4893309    
    208000   303.65534      110.96801      247.10292      358.07092      4790.3133      3352.9458      1.5113018    
    209000   274.32764      102.26523      223.23717      325.5024      -3436.6182      3396.7988      1.4917908    
    210000   316.4261       110.5992       257.49527      368.09447     -5447.4316      3385.0088      1.4969867    
    211000   284.35734      97.086868      231.39896      328.48582      1922.5667      3392.0097      1.493897     
    212000   317.32468      103.25018      258.2265       361.47668      4052.9171      3348.6248      1.513252     
    213000   273.20654      91.379565      222.32487      313.70443     -7767.1986      3381.1135      1.4987113    
    214000   318.94188      97.757164      259.54251      357.29968     -2785.5206      3390.3357      1.4946346    
    215000   284.49678      93.632639      231.51242      325.14506      5430.5729      3379.642       1.4993639    
    216000   306.27503      102.97758      249.23472      352.2123       3713.1299      3338.9519      1.5176359    
    217000   347.62173      107.27431      282.88105      390.15536     -2368.5076      3397.2336      1.4915998    
    218000   316.41415      84.555358      257.48554      342.0409      -1525.7353      3376.6548      1.5006903    
    219000   294.14773      136.47894      239.366        375.84493      5185.1388      3338.1475      1.5180016    
    220000   289.9238       119.31238      235.92873      355.24111      800.67062      3371.5621      1.5029571    
    221000   290.91559      143.42319      236.7358       380.159       -955.55391      3410.237       1.4859123    
    222000   301.44313      102.00165      245.30271      347.30436      581.05583      3353.0165      1.51127      
    223000   313.23334      109.12667      254.89712      364.0238      -48.118439      3353.267       1.5111571    
    224000   297.047        116.87098      241.72531      358.59629      7525.2124      3346.7341      1.5141069    
    225000   293.71933      103.69074      239.01737      342.70811     -2392.783       3393.7204      1.493144     
    226000   329.19976      121.18195      267.88997      389.07192      4971.7756      3366.8415      1.5050644    
    227000   302.33768      108.4682       246.03065      354.49886     -507.0693       3353.3095      1.5111379    
    228000   295.97256      121.25824      240.85097      362.10921      4253.3172      3343.0959      1.5157547    
    229000   318.21383      130.49953      258.95005      389.44958     -1215.2166      3445.2163      1.4708258    
    230000   284.89793      108.28693      231.83886      340.1258       3527.1414      3361.5073      1.5074527    
    231000   302.04512      120.05933      245.79258      365.85191     -2676.5836      3415.6695      1.483549     
    232000   313.31772      103.68805      254.96579      358.65384     -1839.1108      3365.9099      1.5054809    
    233000   279.2675       110.53698      227.25704      337.79403     -8714.2272      3437.0917      1.4743026    
    234000   285.14524      99.988941      232.04012      332.02906      823.11002      3377.3881      1.5003645    
    235000   307.96776      109.65042      250.6122       360.26261      5240.8484      3390.0154      1.4947759    
    236000   323.94213      96.343639      263.61152      359.95516     -5188.7371      3445.5027      1.4707036    
    237000   275.5486       115.61997      224.23075      339.85072     -2378.6284      3441.7932      1.4722887    
    238000   288.75849      88.613259      234.98044      323.5937      -497.34681      3397.3805      1.4915353    
    239000   299.67725      116.86575      243.8657       360.73145     -2408.0833      3431.3241      1.4767807    
    240000   289.41951      118.68314      235.51835      354.20149      551.61779      3396.7895      1.4917949    
    241000   290.83601      124.58101      236.67104      361.25205      5512.5582      3359.5054      1.5083509    
    242000   303.54163      105.51089      247.01038      352.52127      278.85575      3389.0895      1.4951842    
    243000   303.12418      116.39135      246.67068      363.06204      460.22114      3430.3547      1.477198     
    244000   294.26311      108.91715      239.45988      348.37704     -2672.6145      3397.8663      1.4913221    
    245000   306.37454      104.58956      249.3157       353.90526      83.670019      3357.4684      1.5092661    
    246000   312.01785      123.36409      253.908        377.27209     -7401.5667      3384.2152      1.4973378    
    247000   291.16669      106.11638      236.94014      343.05652     -2174.1761      3398.9341      1.4908536    
    248000   315.57819      139.60957      256.80527      396.41484      4654.1908      3380.3342      1.4990568    
    249000   307.47175      95.012635      250.20856      345.2212       2333.4246      3370.3019      1.5035191    
    250000   314.09347      146.41023      255.59706      402.00729     -5456.2573      3430.2961      1.4772233    
    250122   315.90634      101.68237      257.07231      358.75467      3128.5102      3357.1805      1.5093955    
Loop time of 9.04253 on 1 procs for 50000 steps with 274 atoms

Performance: 477.743 ns/day, 0.050 hours/ns, 5529.428 timesteps/s, 1.515 Matom-step/s
99.8% CPU use with 1 MPI tasks x 1 OpenMP threads

MPI task timing breakdown:
Section |  min time  |  avg time  |  max time  |%varavg| %total
---------------------------------------------------------------
Pair    | 4.5604     | 4.5604     | 4.5604     |   0.0 | 50.43
Bond    | 1.7901     | 1.7901     | 1.7901     |   0.0 | 19.80
Neigh   | 1.8961     | 1.8961     | 1.8961     |   0.0 | 20.97
Comm    | 0.22804    | 0.22804    | 0.22804    |   0.0 |  2.52
Output  | 0.20224    | 0.20224    | 0.20224    |   0.0 |  2.24
Modify  | 0.30849    | 0.30849    | 0.30849    |   0.0 |  3.41
Other   |            | 0.05718    |            |       |  0.63

Nlocal:            274 ave         274 max         274 min
Histogram: 1 0 0 0 0 0 0 0 0 0
Nghost:           1938 ave        1938 max        1938 min
Histogram: 1 0 0 0 0 0 0 0 0 0
Neighs:          15081 ave       15081 max       15081 min
Histogram: 1 0 0 0 0 0 0 0 0 0

Total # of neighbors = 15081
Ave neighs/atom = 55.040146
Ave special neighs/atom = 6.2116788
Neighbor list builds = 1162
Dangerous builds = 0
unfix integrate
unfix rho50k

# Compute initial state
fix 3 all box/relax  aniso 0.0
minimize ${etol} ${ftol} ${maxiter} ${maxeval}
minimize 0 ${ftol} ${maxiter} ${maxeval}
minimize 0 1e-10 ${maxiter} ${maxeval}
minimize 0 1e-10 100000 ${maxeval}
minimize 0 1e-10 100000 100000
Generated 6 of 6 mixed pair_coeff terms from arithmetic mixing rule
WARNING: Energy due to 3 extra global DOFs will be included in minimizer energies
 (src/min.cpp:222)
WARNING: Inconsistent image flags
For more information see https://docs.lammps.org/err0027 (src/domain.cpp:1052)
Per MPI rank memory allocation (min/avg/max) = 18.54 | 18.54 | 18.54 Mbytes
   Step          Temp          PotEng         KinEng         TotEng         Press          Volume        Density    
    250122   315.90634      101.68237      257.07231      358.75467      3128.5102      3357.1805      1.5093955    
    250229   315.90634     -13.022022      257.07231      244.05028      3644.2478      3354.4527      1.5106229    
Loop time of 0.0314464 on 1 procs for 107 steps with 274 atoms

100.0% CPU use with 1 MPI tasks x 1 OpenMP threads

Minimization stats:
  Stopping criterion = linesearch alpha is zero
  Energy initial, next-to-last, final = 
      101.682367121068  -13.0220215387986  -13.0220215387986
  Force two-norm initial, final = 697.20305 200.79641
  Force max component initial, final = 332.79222 25.467772
  Final line search alpha, max atom move = 1.8172345e-13 4.6280913e-12
  Iterations, force evaluations = 107 213

MPI task timing breakdown:
Section |  min time  |  avg time  |  max time  |%varavg| %total
---------------------------------------------------------------
Pair    | 0.019057   | 0.019057   | 0.019057   |   0.0 | 60.60
Bond    | 0.0069356  | 0.0069356  | 0.0069356  |   0.0 | 22.06
Neigh   | 0          | 0          | 0          |   0.0 |  0.00
Comm    | 0.00074577 | 0.00074577 | 0.00074577 |   0.0 |  2.37
Output  | 0.00038734 | 0.00038734 | 0.00038734 |   0.0 |  1.23
Modify  | 0          | 0          | 0          |   0.0 |  0.00
Other   |            | 0.00432    |            |       | 13.74

Nlocal:            274 ave         274 max         274 min
Histogram: 1 0 0 0 0 0 0 0 0 0
Nghost:           1912 ave        1912 max        1912 min
Histogram: 1 0 0 0 0 0 0 0 0 0
Neighs:          15084 ave       15084 max       15084 min
Histogram: 1 0 0 0 0 0 0 0 0 0

Total # of neighbors = 15084
Ave neighs/atom = 55.051095
Ave special neighs/atom = 6.2116788
Neighbor list builds = 0
Dangerous builds = 0

variable tmp equal pxx
variable pxx0 equal ${tmp}
variable pxx0 equal 3496.09732050612
variable tmp equal pyy
variable pyy0 equal ${tmp}
variable pyy0 equal 3405.98752797293
variable tmp equal pzz
variable pzz0 equal ${tmp}
variable pzz0 equal 4030.65864106139
variable tmp equal pyz
variable pyz0 equal ${tmp}
variable pyz0 equal -6439.64995173441
variable tmp equal pxz
variable pxz0 equal ${tmp}
variable pxz0 equal -5006.29692222373
variable tmp equal pxy
variable pxy0 equal ${tmp}
variable pxy0 equal 888.785162759249

variable tmp equal lx
variable lx0 equal ${tmp}
variable lx0 equal 14.7055355301521
variable tmp equal ly
variable ly0 equal ${tmp}
variable ly0 equal 13.287307857401
variable tmp equal lz
variable lz0 equal ${tmp}
variable lz0 equal 17.1673723554387

# These formulas define the derivatives w.r.t. strain components
# Constants uses $, variables use v_
variable d1 equal -(v_pxx1-${pxx0})/(v_delta/v_len0)*${cfac}
variable d1 equal -(v_pxx1-3496.09732050612)/(v_delta/v_len0)*${cfac}
variable d1 equal -(v_pxx1-3496.09732050612)/(v_delta/v_len0)*0.0001
variable d2 equal -(v_pyy1-${pyy0})/(v_delta/v_len0)*${cfac}
variable d2 equal -(v_pyy1-3405.98752797293)/(v_delta/v_len0)*${cfac}
variable d2 equal -(v_pyy1-3405.98752797293)/(v_delta/v_len0)*0.0001
variable d3 equal -(v_pzz1-${pzz0})/(v_delta/v_len0)*${cfac}
variable d3 equal -(v_pzz1-4030.65864106139)/(v_delta/v_len0)*${cfac}
variable d3 equal -(v_pzz1-4030.65864106139)/(v_delta/v_len0)*0.0001
variable d4 equal -(v_pyz1-${pyz0})/(v_delta/v_len0)*${cfac}
variable d4 equal -(v_pyz1--6439.64995173441)/(v_delta/v_len0)*${cfac}
variable d4 equal -(v_pyz1--6439.64995173441)/(v_delta/v_len0)*0.0001
variable d5 equal -(v_pxz1-${pxz0})/(v_delta/v_len0)*${cfac}
variable d5 equal -(v_pxz1--5006.29692222373)/(v_delta/v_len0)*${cfac}
variable d5 equal -(v_pxz1--5006.29692222373)/(v_delta/v_len0)*0.0001
variable d6 equal -(v_pxy1-${pxy0})/(v_delta/v_len0)*${cfac}
variable d6 equal -(v_pxy1-888.785162759249)/(v_delta/v_len0)*${cfac}
variable d6 equal -(v_pxy1-888.785162759249)/(v_delta/v_len0)*0.0001

# displace_atoms all random ${atomjiggle} ${atomjiggle} ${atomjiggle} 87287 units box

# Write restart
unfix 3
write_restart restart_333-EXP-6-vasp.equil
System init for write_restart ...
Generated 6 of 6 mixed pair_coeff terms from arithmetic mixing rule

# uxx Perturbation

variable dir equal 1
include ./input/displace_333-EXP-6-vasp.mod
if "${dir} == 1" then    "variable len0 equal ${lx0}"
variable len0 equal ${lx0}
variable len0 equal 14.7055355301521
if "${dir} == 2" then    "variable len0 equal ${ly0}"
if "${dir} == 3" then    "variable len0 equal ${lz0}"
if "${dir} == 4" then    "variable len0 equal ${lz0}"
if "${dir} == 5" then    "variable len0 equal ${lz0}"
if "${dir} == 6" then    "variable len0 equal ${ly0}"

# Reset box and simulation parameters

clear
OMP_NUM_THREADS environment is not set. Defaulting to 1 thread.
  using 1 OpenMP thread(s) per MPI task
box tilt large

The 'box' command has been removed and will be ignored

read_restart restart_333-EXP-6-vasp.equil
Reading restart file ...
  restart file = 10 Sep 2025, LAMMPS = 10 Sep 2025
  restoring atom style full from restart
  triclinic box = (-0.10569727 -0.12410793 -0.19819518) to (14.599838 13.1632 16.969177) with tilt (-7.5322373 1.0153922 1.055143)
WARNING: Triclinic box skew is large. LAMMPS will run inefficiently. (src/domain.cpp:221)
  1 by 1 by 1 MPI processor grid
  restoring pair style lj/cut from restart
  restoring bond style harmonic from restart
  restoring angle style hybrid from restart
  restoring dihedral style harmonic from restart
  274 atoms
  294 bonds
  557 angles
  696 dihedrals
Finding 1-2 1-3 1-4 neighbors ...
  special bond factors lj:    0        0        1       
  special bond factors coul:  0        0        1       
     4 = max # of 1-2 neighbors
     8 = max # of 1-3 neighbors
    12 = max # of special neighbors
  special bonds CPU = 0.000 seconds
  read_restart CPU = 0.001 seconds
include ./input/angles_333-EXP-6-vasp.mod
angle_style hybrid fourier cosine/periodic
angle_coeff 1 fourier 157.882480        0.343737        0.374972        0.281246
angle_coeff 2 fourier 221.735285        0.343737        0.374972        0.281246
angle_coeff 3 fourier 83.380072        0.343737        0.374972        0.281246
angle_coeff 4 fourier 58.020602        0.343737        0.374972        0.281246
angle_coeff 5 fourier 114.246973        0.343737        0.374972        0.281246
angle_coeff 6 fourier 32.417871        0.343737        0.374972        0.281246
angle_coeff 7 fourier 90.420412        0.343737        0.374972        0.281246
angle_coeff 8 fourier 75.498766        0.343737        0.374972        0.281246
angle_coeff 9 cosine/periodic 88.853997              -1               3

# Negative deformation

variable delta equal -${up}*${len0}
variable delta equal -0.02*${len0}
variable delta equal -0.02*14.7055355301521
variable deltaxy equal -${up}*xy
variable deltaxy equal -0.02*xy
variable deltaxz equal -${up}*xz
variable deltaxz equal -0.02*xz
variable deltayz equal -${up}*yz
variable deltayz equal -0.02*yz
if "${dir} == 1" then    "change_box all x delta 0 ${delta} xy delta ${deltaxy} xz delta ${deltaxz} remap units box"
change_box all x delta 0 ${delta} xy delta ${deltaxy} xz delta ${deltaxz} remap units box
change_box all x delta 0 -0.294110710603042 xy delta ${deltaxy} xz delta ${deltaxz} remap units box
change_box all x delta 0 -0.294110710603042 xy delta 0.15064474527401 xz delta ${deltaxz} remap units box
change_box all x delta 0 -0.294110710603042 xy delta 0.15064474527401 xz delta -0.0203078430420587 remap units box
Changing box ...
WARNING: Triclinic box skew is large. LAMMPS will run inefficiently. (src/domain.cpp:221)
  triclinic box = (-0.10569727 -0.12410793 -0.19819518) to (14.305728 13.1632 16.969177) with tilt (-7.5322373 1.0153922 1.055143)
WARNING: Triclinic box skew is large. LAMMPS will run inefficiently. (src/domain.cpp:221)
  triclinic box = (-0.10569727 -0.12410793 -0.19819518) to (14.305728 13.1632 16.969177) with tilt (-7.3815925 1.0153922 1.055143)
WARNING: Triclinic box skew is large. LAMMPS will run inefficiently. (src/domain.cpp:221)
  triclinic box = (-0.10569727 -0.12410793 -0.19819518) to (14.305728 13.1632 16.969177) with tilt (-7.3815925 0.99508431 1.055143)
if "${dir} == 2" then    "change_box all y delta 0 ${delta} yz delta ${deltayz} remap units box"
if "${dir} == 3" then    "change_box all z delta 0 ${delta} remap units box"
if "${dir} == 4" then    "change_box all yz delta ${delta} remap units box"
if "${dir} == 5" then    "change_box all xz delta ${delta} remap units box"
if "${dir} == 6" then    "change_box all xy delta ${delta} remap units box"

# Relax atoms positions

minimize ${etol} ${ftol} ${maxiter} ${maxeval}
minimize 0 ${ftol} ${maxiter} ${maxeval}
minimize 0 1e-10 ${maxiter} ${maxeval}
minimize 0 1e-10 100000 ${maxeval}
minimize 0 1e-10 100000 100000
Generated 6 of 6 mixed pair_coeff terms from arithmetic mixing rule
Neighbor list info ...
  update: every = 1 steps, delay = 0 steps, check = yes
  max neighbors/atom: 2000, page size: 100000
  master list distance cutoff = 7
  ghost atom cutoff = 7
  binsize = 3.5, bins = 7 5 5
  1 neighbor lists, perpetual/occasional/extra = 1 0 0
  (1) pair lj/cut, perpetual
      attributes: half, newton on
      pair build: half/bin/newton/tri
      stencil: half/bin/3d/tri
      bin: standard
WARNING: Inconsistent image flags
For more information see https://docs.lammps.org/err0027 (src/domain.cpp:1052)
Per MPI rank memory allocation (min/avg/max) = 17.49 | 17.49 | 17.49 Mbytes
   Step          Temp          E_pair         E_mol          TotEng         Press     
    250229   315.90634     -346.20019      354.8654       265.73752      26275.928    
    250268   315.90634     -358.83246      225.58197      123.82182      8836.4988    
Loop time of 0.0168097 on 1 procs for 39 steps with 274 atoms

100.0% CPU use with 1 MPI tasks x 1 OpenMP threads

Minimization stats:
  Stopping criterion = linesearch alpha is zero
  Energy initial, next-to-last, final = 
      8.66521155061625  -133.250490203617  -133.250490203617
  Force two-norm initial, final = 262.89951 15.893076
  Force max component initial, final = 37.75533 2.1779153
  Final line search alpha, max atom move = 2.7842954e-11 6.0639594e-11
  Iterations, force evaluations = 39 133

MPI task timing breakdown:
Section |  min time  |  avg time  |  max time  |%varavg| %total
---------------------------------------------------------------
Pair    | 0.012272   | 0.012272   | 0.012272   |   0.0 | 73.01
Bond    | 0.0036798  | 0.0036798  | 0.0036798  |   0.0 | 21.89
Neigh   | 0          | 0          | 0          |   0.0 |  0.00
Comm    | 0.00050493 | 0.00050493 | 0.00050493 |   0.0 |  3.00
Output  | 0          | 0          | 0          |   0.0 |  0.00
Modify  | 0          | 0          | 0          |   0.0 |  0.00
Other   |            | 0.0003529  |            |       |  2.10

Nlocal:            274 ave         274 max         274 min
Histogram: 1 0 0 0 0 0 0 0 0 0
Nghost:           1934 ave        1934 max        1934 min
Histogram: 1 0 0 0 0 0 0 0 0 0
Neighs:          15392 ave       15392 max       15392 min
Histogram: 1 0 0 0 0 0 0 0 0 0

Total # of neighbors = 15392
Ave neighs/atom = 56.175182
Ave special neighs/atom = 6.2116788
Neighbor list builds = 0
Dangerous builds = 0

# Obtain new stress tensor

variable tmp equal pxx
variable pxx1 equal ${tmp}
variable pxx1 equal 14598.548042898
variable tmp equal pyy
variable pyy1 equal ${tmp}
variable pyy1 equal 1894.82801643333
variable tmp equal pzz
variable pzz1 equal ${tmp}
variable pzz1 equal 10016.120294049
variable tmp equal pxy
variable pxy1 equal ${tmp}
variable pxy1 equal 1761.01855332726
variable tmp equal pxz
variable pxz1 equal ${tmp}
variable pxz1 equal -784.360878936303
variable tmp equal pyz
variable pyz1 equal ${tmp}
variable pyz1 equal -3670.85181452834

# Compute elastic constant from pressure tensor

variable C1neg equal ${d1}
variable C1neg equal 55.5122536119594
variable C2neg equal ${d2}
variable C2neg equal -7.555797557698
variable C3neg equal ${d3}
variable C3neg equal 29.9273082649381
variable C4neg equal ${d4}
variable C4neg equal 13.8439906860303
variable C5neg equal ${d5}
variable C5neg equal 21.1096802164371
variable C6neg equal ${d6}
variable C6neg equal 4.36116695284005

# Reset box and simulation parameters

clear
OMP_NUM_THREADS environment is not set. Defaulting to 1 thread.
  using 1 OpenMP thread(s) per MPI task
box tilt large

The 'box' command has been removed and will be ignored

read_restart restart_333-EXP-6-vasp.equil
Reading restart file ...
  restart file = 10 Sep 2025, LAMMPS = 10 Sep 2025
  restoring atom style full from restart
  triclinic box = (-0.10569727 -0.12410793 -0.19819518) to (14.599838 13.1632 16.969177) with tilt (-7.5322373 1.0153922 1.055143)
WARNING: Triclinic box skew is large. LAMMPS will run inefficiently. (src/domain.cpp:221)
  1 by 1 by 1 MPI processor grid
  restoring pair style lj/cut from restart
  restoring bond style harmonic from restart
  restoring angle style hybrid from restart
  restoring dihedral style harmonic from restart
  274 atoms
  294 bonds
  557 angles
  696 dihedrals
Finding 1-2 1-3 1-4 neighbors ...
  special bond factors lj:    0        0        1       
  special bond factors coul:  0        0        1       
     4 = max # of 1-2 neighbors
     8 = max # of 1-3 neighbors
    12 = max # of special neighbors
  special bonds CPU = 0.000 seconds
  read_restart CPU = 0.001 seconds
include ./input/angles_333-EXP-6-vasp.mod
angle_style hybrid fourier cosine/periodic
angle_coeff 1 fourier 157.882480        0.343737        0.374972        0.281246
angle_coeff 2 fourier 221.735285        0.343737        0.374972        0.281246
angle_coeff 3 fourier 83.380072        0.343737        0.374972        0.281246
angle_coeff 4 fourier 58.020602        0.343737        0.374972        0.281246
angle_coeff 5 fourier 114.246973        0.343737        0.374972        0.281246
angle_coeff 6 fourier 32.417871        0.343737        0.374972        0.281246
angle_coeff 7 fourier 90.420412        0.343737        0.374972        0.281246
angle_coeff 8 fourier 75.498766        0.343737        0.374972        0.281246
angle_coeff 9 cosine/periodic 88.853997              -1               3

# Positive deformation

variable delta equal ${up}*${len0}
variable delta equal 0.02*${len0}
variable delta equal 0.02*14.7055355301521
variable deltaxy equal ${up}*xy
variable deltaxy equal 0.02*xy
variable deltaxz equal ${up}*xz
variable deltaxz equal 0.02*xz
variable deltayz equal ${up}*yz
variable deltayz equal 0.02*yz
if "${dir} == 1" then    "change_box all x delta 0 ${delta} xy delta ${deltaxy} xz delta ${deltaxz} remap units box"
change_box all x delta 0 ${delta} xy delta ${deltaxy} xz delta ${deltaxz} remap units box
change_box all x delta 0 0.294110710603042 xy delta ${deltaxy} xz delta ${deltaxz} remap units box
change_box all x delta 0 0.294110710603042 xy delta -0.15064474527401 xz delta ${deltaxz} remap units box
change_box all x delta 0 0.294110710603042 xy delta -0.15064474527401 xz delta 0.0203078430420587 remap units box
Changing box ...
WARNING: Triclinic box skew is large. LAMMPS will run inefficiently. (src/domain.cpp:221)
  triclinic box = (-0.10569727 -0.12410793 -0.19819518) to (14.893949 13.1632 16.969177) with tilt (-7.5322373 1.0153922 1.055143)
WARNING: Triclinic box skew is large. LAMMPS will run inefficiently. (src/domain.cpp:221)
  triclinic box = (-0.10569727 -0.12410793 -0.19819518) to (14.893949 13.1632 16.969177) with tilt (-7.682882 1.0153922 1.055143)
WARNING: Triclinic box skew is large. LAMMPS will run inefficiently. (src/domain.cpp:221)
  triclinic box = (-0.10569727 -0.12410793 -0.19819518) to (14.893949 13.1632 16.969177) with tilt (-7.682882 1.0357 1.055143)
if "${dir} == 2" then    "change_box all y delta 0 ${delta} yz delta ${deltayz} remap units box"
if "${dir} == 3" then    "change_box all z delta 0 ${delta} remap units box"
if "${dir} == 4" then    "change_box all yz delta ${delta} remap units box"
if "${dir} == 5" then    "change_box all xz delta ${delta} remap units box"
if "${dir} == 6" then    "change_box all xy delta ${delta} remap units box"

# Relax atoms positions

minimize ${etol} ${ftol} ${maxiter} ${maxeval}
minimize 0 ${ftol} ${maxiter} ${maxeval}
minimize 0 1e-10 ${maxiter} ${maxeval}
minimize 0 1e-10 100000 ${maxeval}
minimize 0 1e-10 100000 100000
Generated 6 of 6 mixed pair_coeff terms from arithmetic mixing rule
Neighbor list info ...
  update: every = 1 steps, delay = 0 steps, check = yes
  max neighbors/atom: 2000, page size: 100000
  master list distance cutoff = 7
  ghost atom cutoff = 7
  binsize = 3.5, bins = 7 5 5
  1 neighbor lists, perpetual/occasional/extra = 1 0 0
  (1) pair lj/cut, perpetual
      attributes: half, newton on
      pair build: half/bin/newton/tri
      stencil: half/bin/3d/tri
      bin: standard
WARNING: Inconsistent image flags
For more information see https://docs.lammps.org/err0027 (src/domain.cpp:1052)
Per MPI rank memory allocation (min/avg/max) = 17.48 | 17.48 | 17.48 Mbytes
   Step          Temp          E_pair         E_mol          TotEng         Press     
    250229   315.90634     -356.29325      367.54003      268.31908     -18349.672    
    250270   315.90634     -363.73228      232.07976      125.41979     -2135.6461    
Loop time of 0.0166312 on 1 procs for 41 steps with 274 atoms

100.0% CPU use with 1 MPI tasks x 1 OpenMP threads

Minimization stats:
  Stopping criterion = linesearch alpha is zero
  Energy initial, next-to-last, final = 
      11.2467721610622  -131.652516308386  -131.652516308386
  Force two-norm initial, final = 250.2597 14.245053
  Force max component initial, final = 34.920744 1.8162165
  Final line search alpha, max atom move = 3.7823812e-11 6.869623e-11
  Iterations, force evaluations = 41 138

MPI task timing breakdown:
Section |  min time  |  avg time  |  max time  |%varavg| %total
---------------------------------------------------------------
Pair    | 0.01198    | 0.01198    | 0.01198    |   0.0 | 72.03
Bond    | 0.003814   | 0.003814   | 0.003814   |   0.0 | 22.93
Neigh   | 0          | 0          | 0          |   0.0 |  0.00
Comm    | 0.0004836  | 0.0004836  | 0.0004836  |   0.0 |  2.91
Output  | 0          | 0          | 0          |   0.0 |  0.00
Modify  | 0          | 0          | 0          |   0.0 |  0.00
Other   |            | 0.0003539  |            |       |  2.13

Nlocal:            274 ave         274 max         274 min
Histogram: 1 0 0 0 0 0 0 0 0 0
Nghost:           1872 ave        1872 max        1872 min
Histogram: 1 0 0 0 0 0 0 0 0 0
Neighs:          14794 ave       14794 max       14794 min
Histogram: 1 0 0 0 0 0 0 0 0 0

Total # of neighbors = 14794
Ave neighs/atom = 53.992701
Ave special neighs/atom = 6.2116788
Neighbor list builds = 0
Dangerous builds = 0

# Obtain new stress tensor

variable tmp equal pe
variable e1 equal ${tmp}
variable e1 equal -131.652516308386
variable tmp equal press
variable p1 equal ${tmp}
variable p1 equal -2135.64606563719
variable tmp equal pxx
variable pxx1 equal ${tmp}
variable pxx1 equal -6833.47175676226
variable tmp equal pyy
variable pyy1 equal ${tmp}
variable pyy1 equal -3235.69091059442
variable tmp equal pzz
variable pzz1 equal ${tmp}
variable pzz1 equal 3662.22447044511
variable tmp equal pxy
variable pxy1 equal ${tmp}
variable pxy1 equal 2438.83978218917
variable tmp equal pxz
variable pxz1 equal ${tmp}
variable pxz1 equal -931.958360594938
variable tmp equal pyz
variable pyz1 equal ${tmp}
variable pyz1 equal -3530.03658056461

# Compute elastic constant from pressure tensor

variable C1pos equal ${d1}
variable C1pos equal 51.6478453863419
variable C2pos equal ${d2}
variable C2pos equal 33.2083921928368
variable C3pos equal ${d3}
variable C3pos equal 1.8421708530814
variable C4pos equal ${d4}
variable C4pos equal -14.548066855849
variable C5pos equal ${d5}
variable C5pos equal -20.371692808144
variable C6pos equal ${d6}
variable C6pos equal -7.7502730971496

# Combine positive and negative

variable C1${dir} equal 0.5*(${C1neg}+${C1pos})
variable C11 equal 0.5*(${C1neg}+${C1pos})
variable C11 equal 0.5*(55.5122536119594+${C1pos})
variable C11 equal 0.5*(55.5122536119594+51.6478453863419)
variable C2${dir} equal 0.5*(${C2neg}+${C2pos})
variable C21 equal 0.5*(${C2neg}+${C2pos})
variable C21 equal 0.5*(-7.555797557698+${C2pos})
variable C21 equal 0.5*(-7.555797557698+33.2083921928368)
variable C3${dir} equal 0.5*(${C3neg}+${C3pos})
variable C31 equal 0.5*(${C3neg}+${C3pos})
variable C31 equal 0.5*(29.9273082649381+${C3pos})
variable C31 equal 0.5*(29.9273082649381+1.8421708530814)
variable C4${dir} equal 0.5*(${C4neg}+${C4pos})
variable C41 equal 0.5*(${C4neg}+${C4pos})
variable C41 equal 0.5*(13.8439906860303+${C4pos})
variable C41 equal 0.5*(13.8439906860303+-14.548066855849)
variable C5${dir} equal 0.5*(${C5neg}+${C5pos})
variable C51 equal 0.5*(${C5neg}+${C5pos})
variable C51 equal 0.5*(21.1096802164371+${C5pos})
variable C51 equal 0.5*(21.1096802164371+-20.371692808144)
variable C6${dir} equal 0.5*(${C6neg}+${C6pos})
variable C61 equal 0.5*(${C6neg}+${C6pos})
variable C61 equal 0.5*(4.36116695284005+${C6pos})
variable C61 equal 0.5*(4.36116695284005+-7.7502730971496)

# Delete dir to make sure it is not reused

variable dir delete

# uyy Perturbation

variable dir equal 2
include ./input/displace_333-EXP-6-vasp.mod
if "${dir} == 1" then    "variable len0 equal ${lx0}"
if "${dir} == 2" then    "variable len0 equal ${ly0}"
variable len0 equal ${ly0}
variable len0 equal 13.287307857401
if "${dir} == 3" then    "variable len0 equal ${lz0}"
if "${dir} == 4" then    "variable len0 equal ${lz0}"
if "${dir} == 5" then    "variable len0 equal ${lz0}"
if "${dir} == 6" then    "variable len0 equal ${ly0}"

# Reset box and simulation parameters

clear
OMP_NUM_THREADS environment is not set. Defaulting to 1 thread.
  using 1 OpenMP thread(s) per MPI task
box tilt large

The 'box' command has been removed and will be ignored

read_restart restart_333-EXP-6-vasp.equil
Reading restart file ...
  restart file = 10 Sep 2025, LAMMPS = 10 Sep 2025
  restoring atom style full from restart
  triclinic box = (-0.10569727 -0.12410793 -0.19819518) to (14.599838 13.1632 16.969177) with tilt (-7.5322373 1.0153922 1.055143)
WARNING: Triclinic box skew is large. LAMMPS will run inefficiently. (src/domain.cpp:221)
  1 by 1 by 1 MPI processor grid
  restoring pair style lj/cut from restart
  restoring bond style harmonic from restart
  restoring angle style hybrid from restart
  restoring dihedral style harmonic from restart
  274 atoms
  294 bonds
  557 angles
  696 dihedrals
Finding 1-2 1-3 1-4 neighbors ...
  special bond factors lj:    0        0        1       
  special bond factors coul:  0        0        1       
     4 = max # of 1-2 neighbors
     8 = max # of 1-3 neighbors
    12 = max # of special neighbors
  special bonds CPU = 0.000 seconds
  read_restart CPU = 0.001 seconds
include ./input/angles_333-EXP-6-vasp.mod
angle_style hybrid fourier cosine/periodic
angle_coeff 1 fourier 157.882480        0.343737        0.374972        0.281246
angle_coeff 2 fourier 221.735285        0.343737        0.374972        0.281246
angle_coeff 3 fourier 83.380072        0.343737        0.374972        0.281246
angle_coeff 4 fourier 58.020602        0.343737        0.374972        0.281246
angle_coeff 5 fourier 114.246973        0.343737        0.374972        0.281246
angle_coeff 6 fourier 32.417871        0.343737        0.374972        0.281246
angle_coeff 7 fourier 90.420412        0.343737        0.374972        0.281246
angle_coeff 8 fourier 75.498766        0.343737        0.374972        0.281246
angle_coeff 9 cosine/periodic 88.853997              -1               3

# Negative deformation

variable delta equal -${up}*${len0}
variable delta equal -0.02*${len0}
variable delta equal -0.02*13.287307857401
variable deltaxy equal -${up}*xy
variable deltaxy equal -0.02*xy
variable deltaxz equal -${up}*xz
variable deltaxz equal -0.02*xz
variable deltayz equal -${up}*yz
variable deltayz equal -0.02*yz
if "${dir} == 1" then    "change_box all x delta 0 ${delta} xy delta ${deltaxy} xz delta ${deltaxz} remap units box"
if "${dir} == 2" then    "change_box all y delta 0 ${delta} yz delta ${deltayz} remap units box"
change_box all y delta 0 ${delta} yz delta ${deltayz} remap units box
change_box all y delta 0 -0.26574615714802 yz delta ${deltayz} remap units box
change_box all y delta 0 -0.26574615714802 yz delta -0.0211028597807067 remap units box
Changing box ...
WARNING: Triclinic box skew is large. LAMMPS will run inefficiently. (src/domain.cpp:221)
  triclinic box = (-0.10569727 -0.12410793 -0.19819518) to (14.599838 12.897454 16.969177) with tilt (-7.5322373 1.0153922 1.055143)
WARNING: Triclinic box skew is large. LAMMPS will run inefficiently. (src/domain.cpp:221)
  triclinic box = (-0.10569727 -0.12410793 -0.19819518) to (14.599838 12.897454 16.969177) with tilt (-7.5322373 1.0153922 1.0340401)
if "${dir} == 3" then    "change_box all z delta 0 ${delta} remap units box"
if "${dir} == 4" then    "change_box all yz delta ${delta} remap units box"
if "${dir} == 5" then    "change_box all xz delta ${delta} remap units box"
if "${dir} == 6" then    "change_box all xy delta ${delta} remap units box"

# Relax atoms positions

minimize ${etol} ${ftol} ${maxiter} ${maxeval}
minimize 0 ${ftol} ${maxiter} ${maxeval}
minimize 0 1e-10 ${maxiter} ${maxeval}
minimize 0 1e-10 100000 ${maxeval}
minimize 0 1e-10 100000 100000
Generated 6 of 6 mixed pair_coeff terms from arithmetic mixing rule
Neighbor list info ...
  update: every = 1 steps, delay = 0 steps, check = yes
  max neighbors/atom: 2000, page size: 100000
  master list distance cutoff = 7
  ghost atom cutoff = 7
  binsize = 3.5, bins = 7 5 5
  1 neighbor lists, perpetual/occasional/extra = 1 0 0
  (1) pair lj/cut, perpetual
      attributes: half, newton on
      pair build: half/bin/newton/tri
      stencil: half/bin/3d/tri
      bin: standard
WARNING: Inconsistent image flags
For more information see https://docs.lammps.org/err0027 (src/domain.cpp:1052)
Per MPI rank memory allocation (min/avg/max) = 17.48 | 17.48 | 17.48 Mbytes
   Step          Temp          E_pair         E_mol          TotEng         Press     
    250229   315.90634     -343.52168      353.94933      267.49995      25691.604    
    250265   315.90634     -361.23828      222.71585      118.54988      7433.3307    
Loop time of 0.0159468 on 1 procs for 36 steps with 274 atoms

98.9% CPU use with 1 MPI tasks x 1 OpenMP threads

Minimization stats:
  Stopping criterion = linesearch alpha is zero
  Energy initial, next-to-last, final = 
      10.4276481774517  -138.522428828636  -138.522428828636
  Force two-norm initial, final = 260.05951 17.332575
  Force max component initial, final = 30.667291 3.5438425
  Final line search alpha, max atom move = 2.9195816e-11 1.0346537e-10
  Iterations, force evaluations = 36 127

MPI task timing breakdown:
Section |  min time  |  avg time  |  max time  |%varavg| %total
---------------------------------------------------------------
Pair    | 0.011605   | 0.011605   | 0.011605   |   0.0 | 72.77
Bond    | 0.0035658  | 0.0035658  | 0.0035658  |   0.0 | 22.36
Neigh   | 0          | 0          | 0          |   0.0 |  0.00
Comm    | 0.00046259 | 0.00046259 | 0.00046259 |   0.0 |  2.90
Output  | 0          | 0          | 0          |   0.0 |  0.00
Modify  | 0          | 0          | 0          |   0.0 |  0.00
Other   |            | 0.0003136  |            |       |  1.97

Nlocal:            274 ave         274 max         274 min
Histogram: 1 0 0 0 0 0 0 0 0 0
Nghost:           1926 ave        1926 max        1926 min
Histogram: 1 0 0 0 0 0 0 0 0 0
Neighs:          15394 ave       15394 max       15394 min
Histogram: 1 0 0 0 0 0 0 0 0 0

Total # of neighbors = 15394
Ave neighs/atom = 56.182482
Ave special neighs/atom = 6.2116788
Neighbor list builds = 0
Dangerous builds = 0

# Obtain new stress tensor

variable tmp equal pxx
variable pxx1 equal ${tmp}
variable pxx1 equal 6191.2496749347
variable tmp equal pyy
variable pyy1 equal ${tmp}
variable pyy1 equal 5321.13852238175
variable tmp equal pzz
variable pzz1 equal ${tmp}
variable pzz1 equal 10787.6037552418
variable tmp equal pxy
variable pxy1 equal ${tmp}
variable pxy1 equal 1807.81745046433
variable tmp equal pxz
variable pxz1 equal ${tmp}
variable pxz1 equal -657.040696999213
variable tmp equal pyz
variable pyz1 equal ${tmp}
variable pyz1 equal -3666.65360768714

# Compute elastic constant from pressure tensor

variable C1neg equal ${d1}
variable C1neg equal 13.4757617721429
variable C2neg equal ${d2}
variable C2neg equal 9.5757549720441
variable C3neg equal ${d3}
variable C3neg equal 33.784725570902
variable C4neg equal ${d4}
variable C4neg equal 13.8649817202364
variable C5neg equal ${d5}
variable C5neg equal 21.7462811261226
variable C6neg equal ${d6}
variable C6neg equal 4.59516143852541

# Reset box and simulation parameters

clear
OMP_NUM_THREADS environment is not set. Defaulting to 1 thread.
  using 1 OpenMP thread(s) per MPI task
box tilt large

The 'box' command has been removed and will be ignored

read_restart restart_333-EXP-6-vasp.equil
Reading restart file ...
  restart file = 10 Sep 2025, LAMMPS = 10 Sep 2025
  restoring atom style full from restart
  triclinic box = (-0.10569727 -0.12410793 -0.19819518) to (14.599838 13.1632 16.969177) with tilt (-7.5322373 1.0153922 1.055143)
WARNING: Triclinic box skew is large. LAMMPS will run inefficiently. (src/domain.cpp:221)
  1 by 1 by 1 MPI processor grid
  restoring pair style lj/cut from restart
  restoring bond style harmonic from restart
  restoring angle style hybrid from restart
  restoring dihedral style harmonic from restart
  274 atoms
  294 bonds
  557 angles
  696 dihedrals
Finding 1-2 1-3 1-4 neighbors ...
  special bond factors lj:    0        0        1       
  special bond factors coul:  0        0        1       
     4 = max # of 1-2 neighbors
     8 = max # of 1-3 neighbors
    12 = max # of special neighbors
  special bonds CPU = 0.000 seconds
  read_restart CPU = 0.001 seconds
include ./input/angles_333-EXP-6-vasp.mod
angle_style hybrid fourier cosine/periodic
angle_coeff 1 fourier 157.882480        0.343737        0.374972        0.281246
angle_coeff 2 fourier 221.735285        0.343737        0.374972        0.281246
angle_coeff 3 fourier 83.380072        0.343737        0.374972        0.281246
angle_coeff 4 fourier 58.020602        0.343737        0.374972        0.281246
angle_coeff 5 fourier 114.246973        0.343737        0.374972        0.281246
angle_coeff 6 fourier 32.417871        0.343737        0.374972        0.281246
angle_coeff 7 fourier 90.420412        0.343737        0.374972        0.281246
angle_coeff 8 fourier 75.498766        0.343737        0.374972        0.281246
angle_coeff 9 cosine/periodic 88.853997              -1               3

# Positive deformation

variable delta equal ${up}*${len0}
variable delta equal 0.02*${len0}
variable delta equal 0.02*13.287307857401
variable deltaxy equal ${up}*xy
variable deltaxy equal 0.02*xy
variable deltaxz equal ${up}*xz
variable deltaxz equal 0.02*xz
variable deltayz equal ${up}*yz
variable deltayz equal 0.02*yz
if "${dir} == 1" then    "change_box all x delta 0 ${delta} xy delta ${deltaxy} xz delta ${deltaxz} remap units box"
if "${dir} == 2" then    "change_box all y delta 0 ${delta} yz delta ${deltayz} remap units box"
change_box all y delta 0 ${delta} yz delta ${deltayz} remap units box
change_box all y delta 0 0.26574615714802 yz delta ${deltayz} remap units box
change_box all y delta 0 0.26574615714802 yz delta 0.0211028597807067 remap units box
Changing box ...
WARNING: Triclinic box skew is large. LAMMPS will run inefficiently. (src/domain.cpp:221)
  triclinic box = (-0.10569727 -0.12410793 -0.19819518) to (14.599838 13.428946 16.969177) with tilt (-7.5322373 1.0153922 1.055143)
WARNING: Triclinic box skew is large. LAMMPS will run inefficiently. (src/domain.cpp:221)
  triclinic box = (-0.10569727 -0.12410793 -0.19819518) to (14.599838 13.428946 16.969177) with tilt (-7.5322373 1.0153922 1.0762458)
if "${dir} == 3" then    "change_box all z delta 0 ${delta} remap units box"
if "${dir} == 4" then    "change_box all yz delta ${delta} remap units box"
if "${dir} == 5" then    "change_box all xz delta ${delta} remap units box"
if "${dir} == 6" then    "change_box all xy delta ${delta} remap units box"

# Relax atoms positions

minimize ${etol} ${ftol} ${maxiter} ${maxeval}
minimize 0 ${ftol} ${maxiter} ${maxeval}
minimize 0 1e-10 ${maxiter} ${maxeval}
minimize 0 1e-10 100000 ${maxeval}
minimize 0 1e-10 100000 100000
Generated 6 of 6 mixed pair_coeff terms from arithmetic mixing rule
Neighbor list info ...
  update: every = 1 steps, delay = 0 steps, check = yes
  max neighbors/atom: 2000, page size: 100000
  master list distance cutoff = 7
  ghost atom cutoff = 7
  binsize = 3.5, bins = 7 5 5
  1 neighbor lists, perpetual/occasional/extra = 1 0 0
  (1) pair lj/cut, perpetual
      attributes: half, newton on
      pair build: half/bin/newton/tri
      stencil: half/bin/3d/tri
      bin: standard
WARNING: Inconsistent image flags
For more information see https://docs.lammps.org/err0027 (src/domain.cpp:1052)
Per MPI rank memory allocation (min/avg/max) = 17.48 | 17.48 | 17.48 Mbytes
   Step          Temp          E_pair         E_mol          TotEng         Press     
    250229   315.90634     -356.34332      367.33183      268.06082     -17681.446    
    250263   315.90634     -362.04827      232.75804      127.78207     -264.22917    
Loop time of 0.0148846 on 1 procs for 34 steps with 274 atoms

100.0% CPU use with 1 MPI tasks x 1 OpenMP threads

Minimization stats:
  Stopping criterion = linesearch alpha is zero
  Energy initial, next-to-last, final = 
      10.9885132447646  -129.290234672233  -129.290234672233
  Force two-norm initial, final = 249.15002 17.453721
  Force max component initial, final = 37.683873 2.8620117
  Final line search alpha, max atom move = 3.2371335e-11 9.2647139e-11
  Iterations, force evaluations = 34 123

MPI task timing breakdown:
Section |  min time  |  avg time  |  max time  |%varavg| %total
---------------------------------------------------------------
Pair    | 0.010713   | 0.010713   | 0.010713   |   0.0 | 71.97
Bond    | 0.003392   | 0.003392   | 0.003392   |   0.0 | 22.79
Neigh   | 0          | 0          | 0          |   0.0 |  0.00
Comm    | 0.00046813 | 0.00046813 | 0.00046813 |   0.0 |  3.15
Output  | 0          | 0          | 0          |   0.0 |  0.00
Modify  | 0          | 0          | 0          |   0.0 |  0.00
Other   |            | 0.0003116  |            |       |  2.09

Nlocal:            274 ave         274 max         274 min
Histogram: 1 0 0 0 0 0 0 0 0 0
Nghost:           1892 ave        1892 max        1892 min
Histogram: 1 0 0 0 0 0 0 0 0 0
Neighs:          14771 ave       14771 max       14771 min
Histogram: 1 0 0 0 0 0 0 0 0 0

Total # of neighbors = 14771
Ave neighs/atom = 53.908759
Ave special neighs/atom = 6.2116788
Neighbor list builds = 0
Dangerous builds = 0

# Obtain new stress tensor

variable tmp equal pe
variable e1 equal ${tmp}
variable e1 equal -129.290234672233
variable tmp equal press
variable p1 equal ${tmp}
variable p1 equal -264.229172072973
variable tmp equal pxx
variable pxx1 equal ${tmp}
variable pxx1 equal 901.015096476373
variable tmp equal pyy
variable pyy1 equal ${tmp}
variable pyy1 equal -6099.79632991332
variable tmp equal pzz
variable pzz1 equal ${tmp}
variable pzz1 equal 4406.09371721803
variable tmp equal pxy
variable pxy1 equal ${tmp}
variable pxy1 equal 2744.98879806945
variable tmp equal pxz
variable pxz1 equal ${tmp}
variable pxz1 equal -1311.15402953089
variable tmp equal pyz
variable pyz1 equal ${tmp}
variable pyz1 equal -3192.18206161565

# Compute elastic constant from pressure tensor

variable C1pos equal ${d1}
variable C1pos equal 12.9754111201487
variable C2pos equal ${d2}
variable C2pos equal 47.5289192894313
variable C3pos equal ${d3}
variable C3pos equal -1.8771753807832
variable C4pos equal ${d4}
variable C4pos equal -16.2373394505938
variable C5pos equal ${d5}
variable C5pos equal -18.4757144634642
variable C6pos equal ${d6}
variable C6pos equal -9.281018176551

# Combine positive and negative

variable C1${dir} equal 0.5*(${C1neg}+${C1pos})
variable C12 equal 0.5*(${C1neg}+${C1pos})
variable C12 equal 0.5*(13.4757617721429+${C1pos})
variable C12 equal 0.5*(13.4757617721429+12.9754111201487)
variable C2${dir} equal 0.5*(${C2neg}+${C2pos})
variable C22 equal 0.5*(${C2neg}+${C2pos})
variable C22 equal 0.5*(9.5757549720441+${C2pos})
variable C22 equal 0.5*(9.5757549720441+47.5289192894313)
variable C3${dir} equal 0.5*(${C3neg}+${C3pos})
variable C32 equal 0.5*(${C3neg}+${C3pos})
variable C32 equal 0.5*(33.784725570902+${C3pos})
variable C32 equal 0.5*(33.784725570902+-1.8771753807832)
variable C4${dir} equal 0.5*(${C4neg}+${C4pos})
variable C42 equal 0.5*(${C4neg}+${C4pos})
variable C42 equal 0.5*(13.8649817202364+${C4pos})
variable C42 equal 0.5*(13.8649817202364+-16.2373394505938)
variable C5${dir} equal 0.5*(${C5neg}+${C5pos})
variable C52 equal 0.5*(${C5neg}+${C5pos})
variable C52 equal 0.5*(21.7462811261226+${C5pos})
variable C52 equal 0.5*(21.7462811261226+-18.4757144634642)
variable C6${dir} equal 0.5*(${C6neg}+${C6pos})
variable C62 equal 0.5*(${C6neg}+${C6pos})
variable C62 equal 0.5*(4.59516143852541+${C6pos})
variable C62 equal 0.5*(4.59516143852541+-9.281018176551)

# Delete dir to make sure it is not reused

variable dir delete

# uzz Perturbation

variable dir equal 3
include ./input/displace_333-EXP-6-vasp.mod
if "${dir} == 1" then    "variable len0 equal ${lx0}"
if "${dir} == 2" then    "variable len0 equal ${ly0}"
if "${dir} == 3" then    "variable len0 equal ${lz0}"
variable len0 equal ${lz0}
variable len0 equal 17.1673723554387
if "${dir} == 4" then    "variable len0 equal ${lz0}"
if "${dir} == 5" then    "variable len0 equal ${lz0}"
if "${dir} == 6" then    "variable len0 equal ${ly0}"

# Reset box and simulation parameters

clear
OMP_NUM_THREADS environment is not set. Defaulting to 1 thread.
  using 1 OpenMP thread(s) per MPI task
box tilt large

The 'box' command has been removed and will be ignored

read_restart restart_333-EXP-6-vasp.equil
Reading restart file ...
  restart file = 10 Sep 2025, LAMMPS = 10 Sep 2025
  restoring atom style full from restart
  triclinic box = (-0.10569727 -0.12410793 -0.19819518) to (14.599838 13.1632 16.969177) with tilt (-7.5322373 1.0153922 1.055143)
WARNING: Triclinic box skew is large. LAMMPS will run inefficiently. (src/domain.cpp:221)
  1 by 1 by 1 MPI processor grid
  restoring pair style lj/cut from restart
  restoring bond style harmonic from restart
  restoring angle style hybrid from restart
  restoring dihedral style harmonic from restart
  274 atoms
  294 bonds
  557 angles
  696 dihedrals
Finding 1-2 1-3 1-4 neighbors ...
  special bond factors lj:    0        0        1       
  special bond factors coul:  0        0        1       
     4 = max # of 1-2 neighbors
     8 = max # of 1-3 neighbors
    12 = max # of special neighbors
  special bonds CPU = 0.000 seconds
  read_restart CPU = 0.001 seconds
include ./input/angles_333-EXP-6-vasp.mod
angle_style hybrid fourier cosine/periodic
angle_coeff 1 fourier 157.882480        0.343737        0.374972        0.281246
angle_coeff 2 fourier 221.735285        0.343737        0.374972        0.281246
angle_coeff 3 fourier 83.380072        0.343737        0.374972        0.281246
angle_coeff 4 fourier 58.020602        0.343737        0.374972        0.281246
angle_coeff 5 fourier 114.246973        0.343737        0.374972        0.281246
angle_coeff 6 fourier 32.417871        0.343737        0.374972        0.281246
angle_coeff 7 fourier 90.420412        0.343737        0.374972        0.281246
angle_coeff 8 fourier 75.498766        0.343737        0.374972        0.281246
angle_coeff 9 cosine/periodic 88.853997              -1               3

# Negative deformation

variable delta equal -${up}*${len0}
variable delta equal -0.02*${len0}
variable delta equal -0.02*17.1673723554387
variable deltaxy equal -${up}*xy
variable deltaxy equal -0.02*xy
variable deltaxz equal -${up}*xz
variable deltaxz equal -0.02*xz
variable deltayz equal -${up}*yz
variable deltayz equal -0.02*yz
if "${dir} == 1" then    "change_box all x delta 0 ${delta} xy delta ${deltaxy} xz delta ${deltaxz} remap units box"
if "${dir} == 2" then    "change_box all y delta 0 ${delta} yz delta ${deltayz} remap units box"
if "${dir} == 3" then    "change_box all z delta 0 ${delta} remap units box"
change_box all z delta 0 ${delta} remap units box
change_box all z delta 0 -0.343347447108774 remap units box
Changing box ...
WARNING: Triclinic box skew is large. LAMMPS will run inefficiently. (src/domain.cpp:221)
  triclinic box = (-0.10569727 -0.12410793 -0.19819518) to (14.599838 13.1632 16.62583) with tilt (-7.5322373 1.0153922 1.055143)
if "${dir} == 4" then    "change_box all yz delta ${delta} remap units box"
if "${dir} == 5" then    "change_box all xz delta ${delta} remap units box"
if "${dir} == 6" then    "change_box all xy delta ${delta} remap units box"

# Relax atoms positions

minimize ${etol} ${ftol} ${maxiter} ${maxeval}
minimize 0 ${ftol} ${maxiter} ${maxeval}
minimize 0 1e-10 ${maxiter} ${maxeval}
minimize 0 1e-10 100000 ${maxeval}
minimize 0 1e-10 100000 100000
Generated 6 of 6 mixed pair_coeff terms from arithmetic mixing rule
Neighbor list info ...
  update: every = 1 steps, delay = 0 steps, check = yes
  max neighbors/atom: 2000, page size: 100000
  master list distance cutoff = 7
  ghost atom cutoff = 7
  binsize = 3.5, bins = 7 5 5
  1 neighbor lists, perpetual/occasional/extra = 1 0 0
  (1) pair lj/cut, perpetual
      attributes: half, newton on
      pair build: half/bin/newton/tri
      stencil: half/bin/3d/tri
      bin: standard
WARNING: Inconsistent image flags
For more information see https://docs.lammps.org/err0027 (src/domain.cpp:1052)
Per MPI rank memory allocation (min/avg/max) = 17.49 | 17.49 | 17.49 Mbytes
   Step          Temp          E_pair         E_mol          TotEng         Press     
    250229   315.90634     -339.09101      350.73679      268.71809      27427.591    
    250269   315.90634     -354.77445      225.24538      127.54324      8694.2906    
Loop time of 0.0167123 on 1 procs for 40 steps with 274 atoms

100.0% CPU use with 1 MPI tasks x 1 OpenMP threads

Minimization stats:
  Stopping criterion = linesearch alpha is zero
  Energy initial, next-to-last, final = 
      11.6457814760776  -129.529066432472  -129.529066432472
  Force two-norm initial, final = 256.89082 13.617064
  Force max component initial, final = 32.267925 1.7621768
  Final line search alpha, max atom move = 6.401935e-11 1.1281342e-10
  Iterations, force evaluations = 40 133

MPI task timing breakdown:
Section |  min time  |  avg time  |  max time  |%varavg| %total
---------------------------------------------------------------
Pair    | 0.012222   | 0.012222   | 0.012222   |   0.0 | 73.13
Bond    | 0.003674   | 0.003674   | 0.003674   |   0.0 | 21.98
Neigh   | 0          | 0          | 0          |   0.0 |  0.00
Comm    | 0.00047183 | 0.00047183 | 0.00047183 |   0.0 |  2.82
Output  | 0          | 0          | 0          |   0.0 |  0.00
Modify  | 0          | 0          | 0          |   0.0 |  0.00
Other   |            | 0.0003447  |            |       |  2.06

Nlocal:            274 ave         274 max         274 min
Histogram: 1 0 0 0 0 0 0 0 0 0
Nghost:           1932 ave        1932 max        1932 min
Histogram: 1 0 0 0 0 0 0 0 0 0
Neighs:          15414 ave       15414 max       15414 min
Histogram: 1 0 0 0 0 0 0 0 0 0

Total # of neighbors = 15414
Ave neighs/atom = 56.255474
Ave special neighs/atom = 6.2116788
Neighbor list builds = 0
Dangerous builds = 0

# Obtain new stress tensor

variable tmp equal pxx
variable pxx1 equal ${tmp}
variable pxx1 equal 6810.67575037902
variable tmp equal pyy
variable pyy1 equal ${tmp}
variable pyy1 equal 2600.18223841942
variable tmp equal pzz
variable pzz1 equal ${tmp}
variable pzz1 equal 16672.0137013684
variable tmp equal pxy
variable pxy1 equal ${tmp}
variable pxy1 equal 1349.25609684188
variable tmp equal pxz
variable pxz1 equal ${tmp}
variable pxz1 equal -1484.22131987713
variable tmp equal pyz
variable pyz1 equal ${tmp}
variable pyz1 equal -3131.46111835999

# Compute elastic constant from pressure tensor

variable C1neg equal ${d1}
variable C1neg equal 16.5728921493645
variable C2neg equal ${d2}
variable C2neg equal -4.02902644776755
variable C3neg equal ${d3}
variable C3neg equal 63.2067753015351
variable C4neg equal ${d4}
variable C4neg equal 16.5409441668721
variable C5neg equal ${d5}
variable C5neg equal 17.610378011733
variable C6neg equal ${d6}
variable C6neg equal 2.30235467041315

# Reset box and simulation parameters

clear
OMP_NUM_THREADS environment is not set. Defaulting to 1 thread.
  using 1 OpenMP thread(s) per MPI task
box tilt large

The 'box' command has been removed and will be ignored

read_restart restart_333-EXP-6-vasp.equil
Reading restart file ...
  restart file = 10 Sep 2025, LAMMPS = 10 Sep 2025
  restoring atom style full from restart
  triclinic box = (-0.10569727 -0.12410793 -0.19819518) to (14.599838 13.1632 16.969177) with tilt (-7.5322373 1.0153922 1.055143)
WARNING: Triclinic box skew is large. LAMMPS will run inefficiently. (src/domain.cpp:221)
  1 by 1 by 1 MPI processor grid
  restoring pair style lj/cut from restart
  restoring bond style harmonic from restart
  restoring angle style hybrid from restart
  restoring dihedral style harmonic from restart
  274 atoms
  294 bonds
  557 angles
  696 dihedrals
Finding 1-2 1-3 1-4 neighbors ...
  special bond factors lj:    0        0        1       
  special bond factors coul:  0        0        1       
     4 = max # of 1-2 neighbors
     8 = max # of 1-3 neighbors
    12 = max # of special neighbors
  special bonds CPU = 0.000 seconds
  read_restart CPU = 0.001 seconds
include ./input/angles_333-EXP-6-vasp.mod
angle_style hybrid fourier cosine/periodic
angle_coeff 1 fourier 157.882480        0.343737        0.374972        0.281246
angle_coeff 2 fourier 221.735285        0.343737        0.374972        0.281246
angle_coeff 3 fourier 83.380072        0.343737        0.374972        0.281246
angle_coeff 4 fourier 58.020602        0.343737        0.374972        0.281246
angle_coeff 5 fourier 114.246973        0.343737        0.374972        0.281246
angle_coeff 6 fourier 32.417871        0.343737        0.374972        0.281246
angle_coeff 7 fourier 90.420412        0.343737        0.374972        0.281246
angle_coeff 8 fourier 75.498766        0.343737        0.374972        0.281246
angle_coeff 9 cosine/periodic 88.853997              -1               3

# Positive deformation

variable delta equal ${up}*${len0}
variable delta equal 0.02*${len0}
variable delta equal 0.02*17.1673723554387
variable deltaxy equal ${up}*xy
variable deltaxy equal 0.02*xy
variable deltaxz equal ${up}*xz
variable deltaxz equal 0.02*xz
variable deltayz equal ${up}*yz
variable deltayz equal 0.02*yz
if "${dir} == 1" then    "change_box all x delta 0 ${delta} xy delta ${deltaxy} xz delta ${deltaxz} remap units box"
if "${dir} == 2" then    "change_box all y delta 0 ${delta} yz delta ${deltayz} remap units box"
if "${dir} == 3" then    "change_box all z delta 0 ${delta} remap units box"
change_box all z delta 0 ${delta} remap units box
change_box all z delta 0 0.343347447108774 remap units box
Changing box ...
WARNING: Triclinic box skew is large. LAMMPS will run inefficiently. (src/domain.cpp:221)
  triclinic box = (-0.10569727 -0.12410793 -0.19819518) to (14.599838 13.1632 17.312525) with tilt (-7.5322373 1.0153922 1.055143)
if "${dir} == 4" then    "change_box all yz delta ${delta} remap units box"
if "${dir} == 5" then    "change_box all xz delta ${delta} remap units box"
if "${dir} == 6" then    "change_box all xy delta ${delta} remap units box"

# Relax atoms positions

minimize ${etol} ${ftol} ${maxiter} ${maxeval}
minimize 0 ${ftol} ${maxiter} ${maxeval}
minimize 0 1e-10 ${maxiter} ${maxeval}
minimize 0 1e-10 100000 ${maxeval}
minimize 0 1e-10 100000 100000
Generated 6 of 6 mixed pair_coeff terms from arithmetic mixing rule
Neighbor list info ...
  update: every = 1 steps, delay = 0 steps, check = yes
  max neighbors/atom: 2000, page size: 100000
  master list distance cutoff = 7
  ghost atom cutoff = 7
  binsize = 3.5, bins = 7 5 6
  1 neighbor lists, perpetual/occasional/extra = 1 0 0
  (1) pair lj/cut, perpetual
      attributes: half, newton on
      pair build: half/bin/newton/tri
      stencil: half/bin/3d/tri
      bin: standard
WARNING: Inconsistent image flags
For more information see https://docs.lammps.org/err0027 (src/domain.cpp:1052)
Per MPI rank memory allocation (min/avg/max) = 17.48 | 17.48 | 17.48 Mbytes
   Step          Temp          E_pair         E_mol          TotEng         Press     
    250229   315.90634     -359.57602      372.09025      269.58654     -19279.897    
    250279   315.90634     -367.12582      229.52688      119.47337     -1872.2867    
Loop time of 0.0186715 on 1 procs for 50 steps with 274 atoms

100.0% CPU use with 1 MPI tasks x 1 OpenMP threads

Minimization stats:
  Stopping criterion = linesearch alpha is zero
  Energy initial, next-to-last, final = 
      12.5142381025651  -137.598940389932  -137.598940389932
  Force two-norm initial, final = 254.46235 10.661126
  Force max component initial, final = 28.84444 1.5472894
  Final line search alpha, max atom move = 7.0673892e-11 1.0935296e-10
  Iterations, force evaluations = 50 153

MPI task timing breakdown:
Section |  min time  |  avg time  |  max time  |%varavg| %total
---------------------------------------------------------------
Pair    | 0.013498   | 0.013498   | 0.013498   |   0.0 | 72.29
Bond    | 0.0042402  | 0.0042402  | 0.0042402  |   0.0 | 22.71
Neigh   | 0          | 0          | 0          |   0.0 |  0.00
Comm    | 0.00053577 | 0.00053577 | 0.00053577 |   0.0 |  2.87
Output  | 0          | 0          | 0          |   0.0 |  0.00
Modify  | 0          | 0          | 0          |   0.0 |  0.00
Other   |            | 0.0003974  |            |       |  2.13

Nlocal:            274 ave         274 max         274 min
Histogram: 1 0 0 0 0 0 0 0 0 0
Nghost:           1898 ave        1898 max        1898 min
Histogram: 1 0 0 0 0 0 0 0 0 0
Neighs:          14760 ave       14760 max       14760 min
Histogram: 1 0 0 0 0 0 0 0 0 0

Total # of neighbors = 14760
Ave neighs/atom = 53.868613
Ave special neighs/atom = 6.2116788
Neighbor list builds = 0
Dangerous builds = 0

# Obtain new stress tensor

variable tmp equal pe
variable e1 equal ${tmp}
variable e1 equal -137.598940389932
variable tmp equal press
variable p1 equal ${tmp}
variable p1 equal -1872.28668244498
variable tmp equal pxx
variable pxx1 equal ${tmp}
variable pxx1 equal 209.55110161152
variable tmp equal pyy
variable pyy1 equal ${tmp}
variable pyy1 equal -3674.94468875561
variable tmp equal pzz
variable pzz1 equal ${tmp}
variable pzz1 equal -2151.46646019083
variable tmp equal pxy
variable pxy1 equal ${tmp}
variable pxy1 equal 2754.00264645874
variable tmp equal pxz
variable pxz1 equal ${tmp}
variable pxz1 equal 76.2801917120009
variable tmp equal pyz
variable pyz1 equal ${tmp}
variable pyz1 equal -3860.78942469483

# Compute elastic constant from pressure tensor

variable C1pos equal ${d1}
variable C1pos equal 16.432731094473
variable C2pos equal ${d2}
variable C2pos equal 35.4046610836427
variable C3pos equal ${d3}
variable C3pos equal 30.9106255062611
variable C4pos equal ${d4}
variable C4pos equal -12.8943026351979
variable C5pos equal ${d5}
variable C5pos equal -25.4128855696787
variable C6pos equal ${d6}
variable C6pos equal -9.32608741849745

# Combine positive and negative

variable C1${dir} equal 0.5*(${C1neg}+${C1pos})
variable C13 equal 0.5*(${C1neg}+${C1pos})
variable C13 equal 0.5*(16.5728921493645+${C1pos})
variable C13 equal 0.5*(16.5728921493645+16.432731094473)
variable C2${dir} equal 0.5*(${C2neg}+${C2pos})
variable C23 equal 0.5*(${C2neg}+${C2pos})
variable C23 equal 0.5*(-4.02902644776755+${C2pos})
variable C23 equal 0.5*(-4.02902644776755+35.4046610836427)
variable C3${dir} equal 0.5*(${C3neg}+${C3pos})
variable C33 equal 0.5*(${C3neg}+${C3pos})
variable C33 equal 0.5*(63.2067753015351+${C3pos})
variable C33 equal 0.5*(63.2067753015351+30.9106255062611)
variable C4${dir} equal 0.5*(${C4neg}+${C4pos})
variable C43 equal 0.5*(${C4neg}+${C4pos})
variable C43 equal 0.5*(16.5409441668721+${C4pos})
variable C43 equal 0.5*(16.5409441668721+-12.8943026351979)
variable C5${dir} equal 0.5*(${C5neg}+${C5pos})
variable C53 equal 0.5*(${C5neg}+${C5pos})
variable C53 equal 0.5*(17.610378011733+${C5pos})
variable C53 equal 0.5*(17.610378011733+-25.4128855696787)
variable C6${dir} equal 0.5*(${C6neg}+${C6pos})
variable C63 equal 0.5*(${C6neg}+${C6pos})
variable C63 equal 0.5*(2.30235467041315+${C6pos})
variable C63 equal 0.5*(2.30235467041315+-9.32608741849745)

# Delete dir to make sure it is not reused

variable dir delete

# uyz Perturbation

variable dir equal 4
include ./input/displace_333-EXP-6-vasp.mod
if "${dir} == 1" then    "variable len0 equal ${lx0}"
if "${dir} == 2" then    "variable len0 equal ${ly0}"
if "${dir} == 3" then    "variable len0 equal ${lz0}"
if "${dir} == 4" then    "variable len0 equal ${lz0}"
variable len0 equal ${lz0}
variable len0 equal 17.1673723554387
if "${dir} == 5" then    "variable len0 equal ${lz0}"
if "${dir} == 6" then    "variable len0 equal ${ly0}"

# Reset box and simulation parameters

clear
OMP_NUM_THREADS environment is not set. Defaulting to 1 thread.
  using 1 OpenMP thread(s) per MPI task
box tilt large

The 'box' command has been removed and will be ignored

read_restart restart_333-EXP-6-vasp.equil
Reading restart file ...
  restart file = 10 Sep 2025, LAMMPS = 10 Sep 2025
  restoring atom style full from restart
  triclinic box = (-0.10569727 -0.12410793 -0.19819518) to (14.599838 13.1632 16.969177) with tilt (-7.5322373 1.0153922 1.055143)
WARNING: Triclinic box skew is large. LAMMPS will run inefficiently. (src/domain.cpp:221)
  1 by 1 by 1 MPI processor grid
  restoring pair style lj/cut from restart
  restoring bond style harmonic from restart
  restoring angle style hybrid from restart
  restoring dihedral style harmonic from restart
  274 atoms
  294 bonds
  557 angles
  696 dihedrals
Finding 1-2 1-3 1-4 neighbors ...
  special bond factors lj:    0        0        1       
  special bond factors coul:  0        0        1       
     4 = max # of 1-2 neighbors
     8 = max # of 1-3 neighbors
    12 = max # of special neighbors
  special bonds CPU = 0.000 seconds
  read_restart CPU = 0.001 seconds
include ./input/angles_333-EXP-6-vasp.mod
angle_style hybrid fourier cosine/periodic
angle_coeff 1 fourier 157.882480        0.343737        0.374972        0.281246
angle_coeff 2 fourier 221.735285        0.343737        0.374972        0.281246
angle_coeff 3 fourier 83.380072        0.343737        0.374972        0.281246
angle_coeff 4 fourier 58.020602        0.343737        0.374972        0.281246
angle_coeff 5 fourier 114.246973        0.343737        0.374972        0.281246
angle_coeff 6 fourier 32.417871        0.343737        0.374972        0.281246
angle_coeff 7 fourier 90.420412        0.343737        0.374972        0.281246
angle_coeff 8 fourier 75.498766        0.343737        0.374972        0.281246
angle_coeff 9 cosine/periodic 88.853997              -1               3

# Negative deformation

variable delta equal -${up}*${len0}
variable delta equal -0.02*${len0}
variable delta equal -0.02*17.1673723554387
variable deltaxy equal -${up}*xy
variable deltaxy equal -0.02*xy
variable deltaxz equal -${up}*xz
variable deltaxz equal -0.02*xz
variable deltayz equal -${up}*yz
variable deltayz equal -0.02*yz
if "${dir} == 1" then    "change_box all x delta 0 ${delta} xy delta ${deltaxy} xz delta ${deltaxz} remap units box"
if "${dir} == 2" then    "change_box all y delta 0 ${delta} yz delta ${deltayz} remap units box"
if "${dir} == 3" then    "change_box all z delta 0 ${delta} remap units box"
if "${dir} == 4" then    "change_box all yz delta ${delta} remap units box"
change_box all yz delta ${delta} remap units box
change_box all yz delta -0.343347447108774 remap units box
Changing box ...
WARNING: Triclinic box skew is large. LAMMPS will run inefficiently. (src/domain.cpp:221)
  triclinic box = (-0.10569727 -0.12410793 -0.19819518) to (14.599838 13.1632 16.969177) with tilt (-7.5322373 1.0153922 0.71179554)
if "${dir} == 5" then    "change_box all xz delta ${delta} remap units box"
if "${dir} == 6" then    "change_box all xy delta ${delta} remap units box"

# Relax atoms positions

minimize ${etol} ${ftol} ${maxiter} ${maxeval}
minimize 0 ${ftol} ${maxiter} ${maxeval}
minimize 0 1e-10 ${maxiter} ${maxeval}
minimize 0 1e-10 100000 ${maxeval}
minimize 0 1e-10 100000 100000
Generated 6 of 6 mixed pair_coeff terms from arithmetic mixing rule
Neighbor list info ...
  update: every = 1 steps, delay = 0 steps, check = yes
  max neighbors/atom: 2000, page size: 100000
  master list distance cutoff = 7
  ghost atom cutoff = 7
  binsize = 3.5, bins = 7 4 5
  1 neighbor lists, perpetual/occasional/extra = 1 0 0
  (1) pair lj/cut, perpetual
      attributes: half, newton on
      pair build: half/bin/newton/tri
      stencil: half/bin/3d/tri
      bin: standard
WARNING: Inconsistent image flags
For more information see https://docs.lammps.org/err0027 (src/domain.cpp:1052)
Per MPI rank memory allocation (min/avg/max) = 17.48 | 17.48 | 17.48 Mbytes
   Step          Temp          E_pair         E_mol          TotEng         Press     
    250229   315.90634     -353.47279      343.83016      247.42967      3795.3636    
    250254   315.90634     -360.7507       225.3978       121.7194       3553.9899    
Loop time of 0.0132059 on 1 procs for 25 steps with 274 atoms

100.0% CPU use with 1 MPI tasks x 1 OpenMP threads

Minimization stats:
  Stopping criterion = linesearch alpha is zero
  Energy initial, next-to-last, final = 
     -9.64263196513008  -135.352906059798  -135.352906059798
  Force two-norm initial, final = 229.1029 26.527183
  Force max component initial, final = 26.463189 4.7361314
  Final line search alpha, max atom move = 1.1436178e-11 5.416324e-11
  Iterations, force evaluations = 25 107

MPI task timing breakdown:
Section |  min time  |  avg time  |  max time  |%varavg| %total
---------------------------------------------------------------
Pair    | 0.0095789  | 0.0095789  | 0.0095789  |   0.0 | 72.54
Bond    | 0.0029755  | 0.0029755  | 0.0029755  |   0.0 | 22.53
Neigh   | 0          | 0          | 0          |   0.0 |  0.00
Comm    | 0.00039998 | 0.00039998 | 0.00039998 |   0.0 |  3.03
Output  | 0          | 0          | 0          |   0.0 |  0.00
Modify  | 0          | 0          | 0          |   0.0 |  0.00
Other   |            | 0.0002516  |            |       |  1.90

Nlocal:            274 ave         274 max         274 min
Histogram: 1 0 0 0 0 0 0 0 0 0
Nghost:           1908 ave        1908 max        1908 min
Histogram: 1 0 0 0 0 0 0 0 0 0
Neighs:          15059 ave       15059 max       15059 min
Histogram: 1 0 0 0 0 0 0 0 0 0

Total # of neighbors = 15059
Ave neighs/atom = 54.959854
Ave special neighs/atom = 6.2116788
Neighbor list builds = 0
Dangerous builds = 0

# Obtain new stress tensor

variable tmp equal pxx
variable pxx1 equal ${tmp}
variable pxx1 equal 3112.68712801077
variable tmp equal pyy
variable pyy1 equal ${tmp}
variable pyy1 equal -171.765949380828
variable tmp equal pzz
variable pzz1 equal ${tmp}
variable pzz1 equal 7721.04845314666
variable tmp equal pxy
variable pxy1 equal ${tmp}
variable pxy1 equal 3162.72262329434
variable tmp equal pxz
variable pxz1 equal ${tmp}
variable pxz1 equal -1549.35980526328
variable tmp equal pyz
variable pyz1 equal ${tmp}
variable pyz1 equal -609.407691551585

# Compute elastic constant from pressure tensor

variable C1neg equal ${d1}
variable C1neg equal -1.91705096247675
variable C2neg equal ${d2}
variable C2neg equal -17.8887673867688
variable C3neg equal ${d3}
variable C3neg equal 18.4519490604264
variable C4neg equal ${d4}
variable C4neg equal 29.1512113009141
variable C5neg equal ${d5}
variable C5neg equal 17.2846855848023
variable C6neg equal ${d6}
variable C6neg equal 11.3696873026755

# Reset box and simulation parameters

clear
OMP_NUM_THREADS environment is not set. Defaulting to 1 thread.
  using 1 OpenMP thread(s) per MPI task
box tilt large

The 'box' command has been removed and will be ignored

read_restart restart_333-EXP-6-vasp.equil
Reading restart file ...
  restart file = 10 Sep 2025, LAMMPS = 10 Sep 2025
  restoring atom style full from restart
  triclinic box = (-0.10569727 -0.12410793 -0.19819518) to (14.599838 13.1632 16.969177) with tilt (-7.5322373 1.0153922 1.055143)
WARNING: Triclinic box skew is large. LAMMPS will run inefficiently. (src/domain.cpp:221)
  1 by 1 by 1 MPI processor grid
  restoring pair style lj/cut from restart
  restoring bond style harmonic from restart
  restoring angle style hybrid from restart
  restoring dihedral style harmonic from restart
  274 atoms
  294 bonds
  557 angles
  696 dihedrals
Finding 1-2 1-3 1-4 neighbors ...
  special bond factors lj:    0        0        1       
  special bond factors coul:  0        0        1       
     4 = max # of 1-2 neighbors
     8 = max # of 1-3 neighbors
    12 = max # of special neighbors
  special bonds CPU = 0.000 seconds
  read_restart CPU = 0.001 seconds
include ./input/angles_333-EXP-6-vasp.mod
angle_style hybrid fourier cosine/periodic
angle_coeff 1 fourier 157.882480        0.343737        0.374972        0.281246
angle_coeff 2 fourier 221.735285        0.343737        0.374972        0.281246
angle_coeff 3 fourier 83.380072        0.343737        0.374972        0.281246
angle_coeff 4 fourier 58.020602        0.343737        0.374972        0.281246
angle_coeff 5 fourier 114.246973        0.343737        0.374972        0.281246
angle_coeff 6 fourier 32.417871        0.343737        0.374972        0.281246
angle_coeff 7 fourier 90.420412        0.343737        0.374972        0.281246
angle_coeff 8 fourier 75.498766        0.343737        0.374972        0.281246
angle_coeff 9 cosine/periodic 88.853997              -1               3

# Positive deformation

variable delta equal ${up}*${len0}
variable delta equal 0.02*${len0}
variable delta equal 0.02*17.1673723554387
variable deltaxy equal ${up}*xy
variable deltaxy equal 0.02*xy
variable deltaxz equal ${up}*xz
variable deltaxz equal 0.02*xz
variable deltayz equal ${up}*yz
variable deltayz equal 0.02*yz
if "${dir} == 1" then    "change_box all x delta 0 ${delta} xy delta ${deltaxy} xz delta ${deltaxz} remap units box"
if "${dir} == 2" then    "change_box all y delta 0 ${delta} yz delta ${deltayz} remap units box"
if "${dir} == 3" then    "change_box all z delta 0 ${delta} remap units box"
if "${dir} == 4" then    "change_box all yz delta ${delta} remap units box"
change_box all yz delta ${delta} remap units box
change_box all yz delta 0.343347447108774 remap units box
Changing box ...
WARNING: Triclinic box skew is large. LAMMPS will run inefficiently. (src/domain.cpp:221)
  triclinic box = (-0.10569727 -0.12410793 -0.19819518) to (14.599838 13.1632 16.969177) with tilt (-7.5322373 1.0153922 1.3984904)
if "${dir} == 5" then    "change_box all xz delta ${delta} remap units box"
if "${dir} == 6" then    "change_box all xy delta ${delta} remap units box"

# Relax atoms positions

minimize ${etol} ${ftol} ${maxiter} ${maxeval}
minimize 0 ${ftol} ${maxiter} ${maxeval}
minimize 0 1e-10 ${maxiter} ${maxeval}
minimize 0 1e-10 100000 ${maxeval}
minimize 0 1e-10 100000 100000
Generated 6 of 6 mixed pair_coeff terms from arithmetic mixing rule
Neighbor list info ...
  update: every = 1 steps, delay = 0 steps, check = yes
  max neighbors/atom: 2000, page size: 100000
  master list distance cutoff = 7
  ghost atom cutoff = 7
  binsize = 3.5, bins = 7 5 5
  1 neighbor lists, perpetual/occasional/extra = 1 0 0
  (1) pair lj/cut, perpetual
      attributes: half, newton on
      pair build: half/bin/newton/tri
      stencil: half/bin/3d/tri
      bin: standard
WARNING: Inconsistent image flags
For more information see https://docs.lammps.org/err0027 (src/domain.cpp:1052)
Per MPI rank memory allocation (min/avg/max) = 17.48 | 17.48 | 17.48 Mbytes
   Step          Temp          E_pair         E_mol          TotEng         Press     
    250229   315.90634     -349.87833      353.89713      261.0911       3160.9109    
    250268   315.90634     -361.77996      228.7866       124.07895      3134.2173    
Loop time of 0.0162338 on 1 procs for 39 steps with 274 atoms

100.0% CPU use with 1 MPI tasks x 1 OpenMP threads

Minimization stats:
  Stopping criterion = linesearch alpha is zero
  Energy initial, next-to-last, final = 
      4.01879715863026  -132.993361318099  -132.993361318099
  Force two-norm initial, final = 224.86636 14.824286
  Force max component initial, final = 24.348378 2.0000385
  Final line search alpha, max atom move = 3.4263054e-11 6.8527426e-11
  Iterations, force evaluations = 39 133

MPI task timing breakdown:
Section |  min time  |  avg time  |  max time  |%varavg| %total
---------------------------------------------------------------
Pair    | 0.011718   | 0.011718   | 0.011718   |   0.0 | 72.18
Bond    | 0.0036806  | 0.0036806  | 0.0036806  |   0.0 | 22.67
Neigh   | 0          | 0          | 0          |   0.0 |  0.00
Comm    | 0.00048667 | 0.00048667 | 0.00048667 |   0.0 |  3.00
Output  | 0          | 0          | 0          |   0.0 |  0.00
Modify  | 0          | 0          | 0          |   0.0 |  0.00
Other   |            | 0.0003487  |            |       |  2.15

Nlocal:            274 ave         274 max         274 min
Histogram: 1 0 0 0 0 0 0 0 0 0
Nghost:           1912 ave        1912 max        1912 min
Histogram: 1 0 0 0 0 0 0 0 0 0
Neighs:          15101 ave       15101 max       15101 min
Histogram: 1 0 0 0 0 0 0 0 0 0

Total # of neighbors = 15101
Ave neighs/atom = 55.113139
Ave special neighs/atom = 6.2116788
Neighbor list builds = 0
Dangerous builds = 0

# Obtain new stress tensor

variable tmp equal pe
variable e1 equal ${tmp}
variable e1 equal -132.993361318099
variable tmp equal press
variable p1 equal ${tmp}
variable p1 equal 3134.21733137195
variable tmp equal pxx
variable pxx1 equal ${tmp}
variable pxx1 equal 3514.44794479802
variable tmp equal pyy
variable pyy1 equal ${tmp}
variable pyy1 equal -575.683227677811
variable tmp equal pzz
variable pzz1 equal ${tmp}
variable pzz1 equal 6463.88727699564
variable tmp equal pxy
variable pxy1 equal ${tmp}
variable pxy1 equal 1920.97377778401
variable tmp equal pxz
variable pxz1 equal ${tmp}
variable pxz1 equal -677.234679429432
variable tmp equal pyz
variable pyz1 equal ${tmp}
variable pyz1 equal -5657.03104868332

# Compute elastic constant from pressure tensor

variable C1pos equal ${d1}
variable C1pos equal -0.091753121459501
variable C2pos equal ${d2}
variable C2pos equal 19.9083537782537
variable C3pos equal ${d3}
variable C3pos equal -12.1661431796712
variable C4pos equal ${d4}
variable C4pos equal -3.91309451525545
variable C5pos equal ${d5}
variable C5pos equal -21.6453112139715
variable C6pos equal ${d6}
variable C6pos equal -5.1609430751238

# Combine positive and negative

variable C1${dir} equal 0.5*(${C1neg}+${C1pos})
variable C14 equal 0.5*(${C1neg}+${C1pos})
variable C14 equal 0.5*(-1.91705096247675+${C1pos})
variable C14 equal 0.5*(-1.91705096247675+-0.091753121459501)
variable C2${dir} equal 0.5*(${C2neg}+${C2pos})
variable C24 equal 0.5*(${C2neg}+${C2pos})
variable C24 equal 0.5*(-17.8887673867688+${C2pos})
variable C24 equal 0.5*(-17.8887673867688+19.9083537782537)
variable C3${dir} equal 0.5*(${C3neg}+${C3pos})
variable C34 equal 0.5*(${C3neg}+${C3pos})
variable C34 equal 0.5*(18.4519490604264+${C3pos})
variable C34 equal 0.5*(18.4519490604264+-12.1661431796712)
variable C4${dir} equal 0.5*(${C4neg}+${C4pos})
variable C44 equal 0.5*(${C4neg}+${C4pos})
variable C44 equal 0.5*(29.1512113009141+${C4pos})
variable C44 equal 0.5*(29.1512113009141+-3.91309451525545)
variable C5${dir} equal 0.5*(${C5neg}+${C5pos})
variable C54 equal 0.5*(${C5neg}+${C5pos})
variable C54 equal 0.5*(17.2846855848023+${C5pos})
variable C54 equal 0.5*(17.2846855848023+-21.6453112139715)
variable C6${dir} equal 0.5*(${C6neg}+${C6pos})
variable C64 equal 0.5*(${C6neg}+${C6pos})
variable C64 equal 0.5*(11.3696873026755+${C6pos})
variable C64 equal 0.5*(11.3696873026755+-5.1609430751238)

# Delete dir to make sure it is not reused

variable dir delete

# uxz Perturbation

variable dir equal 5
include ./input/displace_333-EXP-6-vasp.mod
if "${dir} == 1" then    "variable len0 equal ${lx0}"
if "${dir} == 2" then    "variable len0 equal ${ly0}"
if "${dir} == 3" then    "variable len0 equal ${lz0}"
if "${dir} == 4" then    "variable len0 equal ${lz0}"
if "${dir} == 5" then    "variable len0 equal ${lz0}"
variable len0 equal ${lz0}
variable len0 equal 17.1673723554387
if "${dir} == 6" then    "variable len0 equal ${ly0}"

# Reset box and simulation parameters

clear
OMP_NUM_THREADS environment is not set. Defaulting to 1 thread.
  using 1 OpenMP thread(s) per MPI task
box tilt large

The 'box' command has been removed and will be ignored

read_restart restart_333-EXP-6-vasp.equil
Reading restart file ...
  restart file = 10 Sep 2025, LAMMPS = 10 Sep 2025
  restoring atom style full from restart
  triclinic box = (-0.10569727 -0.12410793 -0.19819518) to (14.599838 13.1632 16.969177) with tilt (-7.5322373 1.0153922 1.055143)
WARNING: Triclinic box skew is large. LAMMPS will run inefficiently. (src/domain.cpp:221)
  1 by 1 by 1 MPI processor grid
  restoring pair style lj/cut from restart
  restoring bond style harmonic from restart
  restoring angle style hybrid from restart
  restoring dihedral style harmonic from restart
  274 atoms
  294 bonds
  557 angles
  696 dihedrals
Finding 1-2 1-3 1-4 neighbors ...
  special bond factors lj:    0        0        1       
  special bond factors coul:  0        0        1       
     4 = max # of 1-2 neighbors
     8 = max # of 1-3 neighbors
    12 = max # of special neighbors
  special bonds CPU = 0.000 seconds
  read_restart CPU = 0.001 seconds
include ./input/angles_333-EXP-6-vasp.mod
angle_style hybrid fourier cosine/periodic
angle_coeff 1 fourier 157.882480        0.343737        0.374972        0.281246
angle_coeff 2 fourier 221.735285        0.343737        0.374972        0.281246
angle_coeff 3 fourier 83.380072        0.343737        0.374972        0.281246
angle_coeff 4 fourier 58.020602        0.343737        0.374972        0.281246
angle_coeff 5 fourier 114.246973        0.343737        0.374972        0.281246
angle_coeff 6 fourier 32.417871        0.343737        0.374972        0.281246
angle_coeff 7 fourier 90.420412        0.343737        0.374972        0.281246
angle_coeff 8 fourier 75.498766        0.343737        0.374972        0.281246
angle_coeff 9 cosine/periodic 88.853997              -1               3

# Negative deformation

variable delta equal -${up}*${len0}
variable delta equal -0.02*${len0}
variable delta equal -0.02*17.1673723554387
variable deltaxy equal -${up}*xy
variable deltaxy equal -0.02*xy
variable deltaxz equal -${up}*xz
variable deltaxz equal -0.02*xz
variable deltayz equal -${up}*yz
variable deltayz equal -0.02*yz
if "${dir} == 1" then    "change_box all x delta 0 ${delta} xy delta ${deltaxy} xz delta ${deltaxz} remap units box"
if "${dir} == 2" then    "change_box all y delta 0 ${delta} yz delta ${deltayz} remap units box"
if "${dir} == 3" then    "change_box all z delta 0 ${delta} remap units box"
if "${dir} == 4" then    "change_box all yz delta ${delta} remap units box"
if "${dir} == 5" then    "change_box all xz delta ${delta} remap units box"
change_box all xz delta ${delta} remap units box
change_box all xz delta -0.343347447108774 remap units box
Changing box ...
WARNING: Triclinic box skew is large. LAMMPS will run inefficiently. (src/domain.cpp:221)
  triclinic box = (-0.10569727 -0.12410793 -0.19819518) to (14.599838 13.1632 16.969177) with tilt (-7.5322373 0.6720447 1.055143)
if "${dir} == 6" then    "change_box all xy delta ${delta} remap units box"

# Relax atoms positions

minimize ${etol} ${ftol} ${maxiter} ${maxeval}
minimize 0 ${ftol} ${maxiter} ${maxeval}
minimize 0 1e-10 ${maxiter} ${maxeval}
minimize 0 1e-10 100000 ${maxeval}
minimize 0 1e-10 100000 100000
Generated 6 of 6 mixed pair_coeff terms from arithmetic mixing rule
Neighbor list info ...
  update: every = 1 steps, delay = 0 steps, check = yes
  max neighbors/atom: 2000, page size: 100000
  master list distance cutoff = 7
  ghost atom cutoff = 7
  binsize = 3.5, bins = 7 5 5
  1 neighbor lists, perpetual/occasional/extra = 1 0 0
  (1) pair lj/cut, perpetual
      attributes: half, newton on
      pair build: half/bin/newton/tri
      stencil: half/bin/3d/tri
      bin: standard
WARNING: Inconsistent image flags
For more information see https://docs.lammps.org/err0027 (src/domain.cpp:1052)
Per MPI rank memory allocation (min/avg/max) = 17.48 | 17.48 | 17.48 Mbytes
   Step          Temp          E_pair         E_mol          TotEng         Press     
    250229   315.90634     -352.36586      344.72616      249.4326       3390.8966    
    250271   315.90634     -363.14615      225.93759      119.86374      2842.2431    
Loop time of 0.0171136 on 1 procs for 42 steps with 274 atoms

100.0% CPU use with 1 MPI tasks x 1 OpenMP threads

Minimization stats:
  Stopping criterion = linesearch alpha is zero
  Energy initial, next-to-last, final = 
     -7.63970507338141  -137.208567818336  -137.208567818336
  Force two-norm initial, final = 228.75204 12.487519
  Force max component initial, final = 28.697396 1.504256
  Final line search alpha, max atom move = 4.3282904e-11 6.5108568e-11
  Iterations, force evaluations = 42 140

MPI task timing breakdown:
Section |  min time  |  avg time  |  max time  |%varavg| %total
---------------------------------------------------------------
Pair    | 0.012415   | 0.012415   | 0.012415   |   0.0 | 72.54
Bond    | 0.0038363  | 0.0038363  | 0.0038363  |   0.0 | 22.42
Neigh   | 0          | 0          | 0          |   0.0 |  0.00
Comm    | 0.00048978 | 0.00048978 | 0.00048978 |   0.0 |  2.86
Output  | 0          | 0          | 0          |   0.0 |  0.00
Modify  | 0          | 0          | 0          |   0.0 |  0.00
Other   |            | 0.0003727  |            |       |  2.18

Nlocal:            274 ave         274 max         274 min
Histogram: 1 0 0 0 0 0 0 0 0 0
Nghost:           1912 ave        1912 max        1912 min
Histogram: 1 0 0 0 0 0 0 0 0 0
Neighs:          15090 ave       15090 max       15090 min
Histogram: 1 0 0 0 0 0 0 0 0 0

Total # of neighbors = 15090
Ave neighs/atom = 55.072993
Ave special neighs/atom = 6.2116788
Neighbor list builds = 0
Dangerous builds = 0

# Obtain new stress tensor

variable tmp equal pxx
variable pxx1 equal ${tmp}
variable pxx1 equal 3048.51349360782
variable tmp equal pyy
variable pyy1 equal ${tmp}
variable pyy1 equal -575.669359446072
variable tmp equal pzz
variable pzz1 equal ${tmp}
variable pzz1 equal 6053.88524745181
variable tmp equal pxy
variable pxy1 equal ${tmp}
variable pxy1 equal 2383.64895670424
variable tmp equal pxz
variable pxz1 equal ${tmp}
variable pxz1 equal 1548.10320802729
variable tmp equal pyz
variable pyz1 equal ${tmp}
variable pyz1 equal -3735.57429475829

# Compute elastic constant from pressure tensor

variable C1neg equal ${d1}
variable C1neg equal -2.2379191344915
variable C2neg equal ${d2}
variable C2neg equal -19.908284437095
variable C3neg equal ${d3}
variable C3neg equal 10.1161330319521
variable C4neg equal ${d4}
variable C4neg equal 13.5203782848806
variable C5neg equal ${d5}
variable C5neg equal 32.7720006512551
variable C6neg equal ${d6}
variable C6neg equal 7.47431896972495

# Reset box and simulation parameters

clear
OMP_NUM_THREADS environment is not set. Defaulting to 1 thread.
  using 1 OpenMP thread(s) per MPI task
box tilt large

The 'box' command has been removed and will be ignored

read_restart restart_333-EXP-6-vasp.equil
Reading restart file ...
  restart file = 10 Sep 2025, LAMMPS = 10 Sep 2025
  restoring atom style full from restart
  triclinic box = (-0.10569727 -0.12410793 -0.19819518) to (14.599838 13.1632 16.969177) with tilt (-7.5322373 1.0153922 1.055143)
WARNING: Triclinic box skew is large. LAMMPS will run inefficiently. (src/domain.cpp:221)
  1 by 1 by 1 MPI processor grid
  restoring pair style lj/cut from restart
  restoring bond style harmonic from restart
  restoring angle style hybrid from restart
  restoring dihedral style harmonic from restart
  274 atoms
  294 bonds
  557 angles
  696 dihedrals
Finding 1-2 1-3 1-4 neighbors ...
  special bond factors lj:    0        0        1       
  special bond factors coul:  0        0        1       
     4 = max # of 1-2 neighbors
     8 = max # of 1-3 neighbors
    12 = max # of special neighbors
  special bonds CPU = 0.000 seconds
  read_restart CPU = 0.001 seconds
include ./input/angles_333-EXP-6-vasp.mod
angle_style hybrid fourier cosine/periodic
angle_coeff 1 fourier 157.882480        0.343737        0.374972        0.281246
angle_coeff 2 fourier 221.735285        0.343737        0.374972        0.281246
angle_coeff 3 fourier 83.380072        0.343737        0.374972        0.281246
angle_coeff 4 fourier 58.020602        0.343737        0.374972        0.281246
angle_coeff 5 fourier 114.246973        0.343737        0.374972        0.281246
angle_coeff 6 fourier 32.417871        0.343737        0.374972        0.281246
angle_coeff 7 fourier 90.420412        0.343737        0.374972        0.281246
angle_coeff 8 fourier 75.498766        0.343737        0.374972        0.281246
angle_coeff 9 cosine/periodic 88.853997              -1               3

# Positive deformation

variable delta equal ${up}*${len0}
variable delta equal 0.02*${len0}
variable delta equal 0.02*17.1673723554387
variable deltaxy equal ${up}*xy
variable deltaxy equal 0.02*xy
variable deltaxz equal ${up}*xz
variable deltaxz equal 0.02*xz
variable deltayz equal ${up}*yz
variable deltayz equal 0.02*yz
if "${dir} == 1" then    "change_box all x delta 0 ${delta} xy delta ${deltaxy} xz delta ${deltaxz} remap units box"
if "${dir} == 2" then    "change_box all y delta 0 ${delta} yz delta ${deltayz} remap units box"
if "${dir} == 3" then    "change_box all z delta 0 ${delta} remap units box"
if "${dir} == 4" then    "change_box all yz delta ${delta} remap units box"
if "${dir} == 5" then    "change_box all xz delta ${delta} remap units box"
change_box all xz delta ${delta} remap units box
change_box all xz delta 0.343347447108774 remap units box
Changing box ...
WARNING: Triclinic box skew is large. LAMMPS will run inefficiently. (src/domain.cpp:221)
  triclinic box = (-0.10569727 -0.12410793 -0.19819518) to (14.599838 13.1632 16.969177) with tilt (-7.5322373 1.3587396 1.055143)
if "${dir} == 6" then    "change_box all xy delta ${delta} remap units box"

# Relax atoms positions

minimize ${etol} ${ftol} ${maxiter} ${maxeval}
minimize 0 ${ftol} ${maxiter} ${maxeval}
minimize 0 1e-10 ${maxiter} ${maxeval}
minimize 0 1e-10 100000 ${maxeval}
minimize 0 1e-10 100000 100000
Generated 6 of 6 mixed pair_coeff terms from arithmetic mixing rule
Neighbor list info ...
  update: every = 1 steps, delay = 0 steps, check = yes
  max neighbors/atom: 2000, page size: 100000
  master list distance cutoff = 7
  ghost atom cutoff = 7
  binsize = 3.5, bins = 7 5 5
  1 neighbor lists, perpetual/occasional/extra = 1 0 0
  (1) pair lj/cut, perpetual
      attributes: half, newton on
      pair build: half/bin/newton/tri
      stencil: half/bin/3d/tri
      bin: standard
WARNING: Inconsistent image flags
For more information see https://docs.lammps.org/err0027 (src/domain.cpp:1052)
Per MPI rank memory allocation (min/avg/max) = 17.48 | 17.48 | 17.48 Mbytes
   Step          Temp          E_pair         E_mol          TotEng         Press     
    250229   315.90634     -351.64442      354.15991      259.5878       3536.6072    
    250264   315.90634     -362.17767      227.07441      121.96904      3264.9228    
Loop time of 0.015701 on 1 procs for 35 steps with 274 atoms

100.0% CPU use with 1 MPI tasks x 1 OpenMP threads

Minimization stats:
  Stopping criterion = linesearch alpha is zero
  Energy initial, next-to-last, final = 
      2.51549074136554  -135.103266155218  -135.103266155218
  Force two-norm initial, final = 232.35225 16.469337
  Force max component initial, final = 27.479427 2.5163044
  Final line search alpha, max atom move = 3.093883e-11 7.7851515e-11
  Iterations, force evaluations = 35 126

MPI task timing breakdown:
Section |  min time  |  avg time  |  max time  |%varavg| %total
---------------------------------------------------------------
Pair    | 0.011426   | 0.011426   | 0.011426   |   0.0 | 72.77
Bond    | 0.0034854  | 0.0034854  | 0.0034854  |   0.0 | 22.20
Neigh   | 0          | 0          | 0          |   0.0 |  0.00
Comm    | 0.00045709 | 0.00045709 | 0.00045709 |   0.0 |  2.91
Output  | 0          | 0          | 0          |   0.0 |  0.00
Modify  | 0          | 0          | 0          |   0.0 |  0.00
Other   |            | 0.000333   |            |       |  2.12

Nlocal:            274 ave         274 max         274 min
Histogram: 1 0 0 0 0 0 0 0 0 0
Nghost:           1912 ave        1912 max        1912 min
Histogram: 1 0 0 0 0 0 0 0 0 0
Neighs:          15061 ave       15061 max       15061 min
Histogram: 1 0 0 0 0 0 0 0 0 0

Total # of neighbors = 15061
Ave neighs/atom = 54.967153
Ave special neighs/atom = 6.2116788
Neighbor list builds = 0
Dangerous builds = 0

# Obtain new stress tensor

variable tmp equal pe
variable e1 equal ${tmp}
variable e1 equal -135.103266155218
variable tmp equal press
variable p1 equal ${tmp}
variable p1 equal 3264.92284628771
variable tmp equal pxx
variable pxx1 equal ${tmp}
variable pxx1 equal 3201.93699026331
variable tmp equal pyy
variable pyy1 equal ${tmp}
variable pyy1 equal -1393.06091291001
variable tmp equal pzz
variable pzz1 equal ${tmp}
variable pzz1 equal 7985.89246150983
variable tmp equal pxy
variable pxy1 equal ${tmp}
variable pxy1 equal 1950.1497470256
variable tmp equal pxz
variable pxz1 equal ${tmp}
variable pxz1 equal -3414.59570896827
variable tmp equal pyz
variable pyz1 equal ${tmp}
variable pyz1 equal -3140.74557140408

# Compute elastic constant from pressure tensor

variable C1pos equal ${d1}
variable C1pos equal 1.47080165121405
variable C2pos equal ${d2}
variable C2pos equal 23.9952422044147
variable C3pos equal ${d3}
variable C3pos equal -19.7761691022422
variable C4pos equal ${d4}
variable C4pos equal -16.4945219016517
variable C5pos equal ${d5}
variable C5pos equal -7.9585060662773
variable C6pos equal ${d6}
variable C6pos equal -5.30682292133175

# Combine positive and negative

variable C1${dir} equal 0.5*(${C1neg}+${C1pos})
variable C15 equal 0.5*(${C1neg}+${C1pos})
variable C15 equal 0.5*(-2.2379191344915+${C1pos})
variable C15 equal 0.5*(-2.2379191344915+1.47080165121405)
variable C2${dir} equal 0.5*(${C2neg}+${C2pos})
variable C25 equal 0.5*(${C2neg}+${C2pos})
variable C25 equal 0.5*(-19.908284437095+${C2pos})
variable C25 equal 0.5*(-19.908284437095+23.9952422044147)
variable C3${dir} equal 0.5*(${C3neg}+${C3pos})
variable C35 equal 0.5*(${C3neg}+${C3pos})
variable C35 equal 0.5*(10.1161330319521+${C3pos})
variable C35 equal 0.5*(10.1161330319521+-19.7761691022422)
variable C4${dir} equal 0.5*(${C4neg}+${C4pos})
variable C45 equal 0.5*(${C4neg}+${C4pos})
variable C45 equal 0.5*(13.5203782848806+${C4pos})
variable C45 equal 0.5*(13.5203782848806+-16.4945219016517)
variable C5${dir} equal 0.5*(${C5neg}+${C5pos})
variable C55 equal 0.5*(${C5neg}+${C5pos})
variable C55 equal 0.5*(32.7720006512551+${C5pos})
variable C55 equal 0.5*(32.7720006512551+-7.9585060662773)
variable C6${dir} equal 0.5*(${C6neg}+${C6pos})
variable C65 equal 0.5*(${C6neg}+${C6pos})
variable C65 equal 0.5*(7.47431896972495+${C6pos})
variable C65 equal 0.5*(7.47431896972495+-5.30682292133175)

# Delete dir to make sure it is not reused

variable dir delete

# uxy Perturbation

variable dir equal 6
include ./input/displace_333-EXP-6-vasp.mod
if "${dir} == 1" then    "variable len0 equal ${lx0}"
if "${dir} == 2" then    "variable len0 equal ${ly0}"
if "${dir} == 3" then    "variable len0 equal ${lz0}"
if "${dir} == 4" then    "variable len0 equal ${lz0}"
if "${dir} == 5" then    "variable len0 equal ${lz0}"
if "${dir} == 6" then    "variable len0 equal ${ly0}"
variable len0 equal ${ly0}
variable len0 equal 13.287307857401

# Reset box and simulation parameters

clear
OMP_NUM_THREADS environment is not set. Defaulting to 1 thread.
  using 1 OpenMP thread(s) per MPI task
box tilt large

The 'box' command has been removed and will be ignored

read_restart restart_333-EXP-6-vasp.equil
Reading restart file ...
  restart file = 10 Sep 2025, LAMMPS = 10 Sep 2025
  restoring atom style full from restart
  triclinic box = (-0.10569727 -0.12410793 -0.19819518) to (14.599838 13.1632 16.969177) with tilt (-7.5322373 1.0153922 1.055143)
WARNING: Triclinic box skew is large. LAMMPS will run inefficiently. (src/domain.cpp:221)
  1 by 1 by 1 MPI processor grid
  restoring pair style lj/cut from restart
  restoring bond style harmonic from restart
  restoring angle style hybrid from restart
  restoring dihedral style harmonic from restart
  274 atoms
  294 bonds
  557 angles
  696 dihedrals
Finding 1-2 1-3 1-4 neighbors ...
  special bond factors lj:    0        0        1       
  special bond factors coul:  0        0        1       
     4 = max # of 1-2 neighbors
     8 = max # of 1-3 neighbors
    12 = max # of special neighbors
  special bonds CPU = 0.000 seconds
  read_restart CPU = 0.001 seconds
include ./input/angles_333-EXP-6-vasp.mod
angle_style hybrid fourier cosine/periodic
angle_coeff 1 fourier 157.882480        0.343737        0.374972        0.281246
angle_coeff 2 fourier 221.735285        0.343737        0.374972        0.281246
angle_coeff 3 fourier 83.380072        0.343737        0.374972        0.281246
angle_coeff 4 fourier 58.020602        0.343737        0.374972        0.281246
angle_coeff 5 fourier 114.246973        0.343737        0.374972        0.281246
angle_coeff 6 fourier 32.417871        0.343737        0.374972        0.281246
angle_coeff 7 fourier 90.420412        0.343737        0.374972        0.281246
angle_coeff 8 fourier 75.498766        0.343737        0.374972        0.281246
angle_coeff 9 cosine/periodic 88.853997              -1               3

# Negative deformation

variable delta equal -${up}*${len0}
variable delta equal -0.02*${len0}
variable delta equal -0.02*13.287307857401
variable deltaxy equal -${up}*xy
variable deltaxy equal -0.02*xy
variable deltaxz equal -${up}*xz
variable deltaxz equal -0.02*xz
variable deltayz equal -${up}*yz
variable deltayz equal -0.02*yz
if "${dir} == 1" then    "change_box all x delta 0 ${delta} xy delta ${deltaxy} xz delta ${deltaxz} remap units box"
if "${dir} == 2" then    "change_box all y delta 0 ${delta} yz delta ${deltayz} remap units box"
if "${dir} == 3" then    "change_box all z delta 0 ${delta} remap units box"
if "${dir} == 4" then    "change_box all yz delta ${delta} remap units box"
if "${dir} == 5" then    "change_box all xz delta ${delta} remap units box"
if "${dir} == 6" then    "change_box all xy delta ${delta} remap units box"
change_box all xy delta ${delta} remap units box
change_box all xy delta -0.26574615714802 remap units box
Changing box ...
WARNING: Triclinic box skew is large. LAMMPS will run inefficiently. (src/domain.cpp:221)
  triclinic box = (-0.10569727 -0.12410793 -0.19819518) to (14.599838 13.1632 16.969177) with tilt (-7.7979834 1.0153922 1.055143)

# Relax atoms positions

minimize ${etol} ${ftol} ${maxiter} ${maxeval}
minimize 0 ${ftol} ${maxiter} ${maxeval}
minimize 0 1e-10 ${maxiter} ${maxeval}
minimize 0 1e-10 100000 ${maxeval}
minimize 0 1e-10 100000 100000
Generated 6 of 6 mixed pair_coeff terms from arithmetic mixing rule
Neighbor list info ...
  update: every = 1 steps, delay = 0 steps, check = yes
  max neighbors/atom: 2000, page size: 100000
  master list distance cutoff = 7
  ghost atom cutoff = 7
  binsize = 3.5, bins = 7 5 5
  1 neighbor lists, perpetual/occasional/extra = 1 0 0
  (1) pair lj/cut, perpetual
      attributes: half, newton on
      pair build: half/bin/newton/tri
      stencil: half/bin/3d/tri
      bin: standard
WARNING: Inconsistent image flags
For more information see https://docs.lammps.org/err0027 (src/domain.cpp:1052)
Per MPI rank memory allocation (min/avg/max) = 17.48 | 17.48 | 17.48 Mbytes
   Step          Temp          E_pair         E_mol          TotEng         Press     
    250229   315.90634     -350.86011      349.35798      255.57018      3841.2861    
    250271   315.90634     -362.88175      227.88076      122.07131      2401.76      
Loop time of 0.0169581 on 1 procs for 42 steps with 274 atoms

100.0% CPU use with 1 MPI tasks x 1 OpenMP threads

Minimization stats:
  Stopping criterion = linesearch alpha is zero
  Energy initial, next-to-last, final = 
     -1.50212595484965  -135.000991852999  -135.000991852999
  Force two-norm initial, final = 224.88184 13.326074
  Force max component initial, final = 30.345523 1.9926545
  Final line search alpha, max atom move = 6.1287203e-11 1.2212422e-10
  Iterations, force evaluations = 42 138

MPI task timing breakdown:
Section |  min time  |  avg time  |  max time  |%varavg| %total
---------------------------------------------------------------
Pair    | 0.012234   | 0.012234   | 0.012234   |   0.0 | 72.15
Bond    | 0.0038418  | 0.0038418  | 0.0038418  |   0.0 | 22.65
Neigh   | 0          | 0          | 0          |   0.0 |  0.00
Comm    | 0.00052084 | 0.00052084 | 0.00052084 |   0.0 |  3.07
Output  | 0          | 0          | 0          |   0.0 |  0.00
Modify  | 0          | 0          | 0          |   0.0 |  0.00
Other   |            | 0.000361   |            |       |  2.13

Nlocal:            274 ave         274 max         274 min
Histogram: 1 0 0 0 0 0 0 0 0 0
Nghost:           1922 ave        1922 max        1922 min
Histogram: 1 0 0 0 0 0 0 0 0 0
Neighs:          15089 ave       15089 max       15089 min
Histogram: 1 0 0 0 0 0 0 0 0 0

Total # of neighbors = 15089
Ave neighs/atom = 55.069343
Ave special neighs/atom = 6.2116788
Neighbor list builds = 0
Dangerous builds = 0

# Obtain new stress tensor

variable tmp equal pxx
variable pxx1 equal ${tmp}
variable pxx1 equal 2604.43466527442
variable tmp equal pyy
variable pyy1 equal ${tmp}
variable pyy1 equal -1337.81842424945
variable tmp equal pzz
variable pzz1 equal ${tmp}
variable pzz1 equal 5938.66386344371
variable tmp equal pxy
variable pxy1 equal ${tmp}
variable pxy1 equal 4388.27143611808
variable tmp equal pxz
variable pxz1 equal ${tmp}
variable pxz1 equal -744.266900634852
variable tmp equal pyz
variable pyz1 equal ${tmp}
variable pyz1 equal -3316.21870038514

# Compute elastic constant from pressure tensor

variable C1neg equal ${d1}
variable C1neg equal -4.4583132761585
variable C2neg equal ${d2}
variable C2neg equal -23.7190297611119
variable C3neg equal ${d3}
variable C3neg equal 9.5400261119116
variable C4neg equal ${d4}
variable C4neg equal 15.6171562567463
variable C5neg equal ${d5}
variable C5neg equal 21.3101501079444
variable C6neg equal ${d6}
variable C6neg equal 17.4974313667942

# Reset box and simulation parameters

clear
OMP_NUM_THREADS environment is not set. Defaulting to 1 thread.
  using 1 OpenMP thread(s) per MPI task
box tilt large

The 'box' command has been removed and will be ignored

read_restart restart_333-EXP-6-vasp.equil
Reading restart file ...
  restart file = 10 Sep 2025, LAMMPS = 10 Sep 2025
  restoring atom style full from restart
  triclinic box = (-0.10569727 -0.12410793 -0.19819518) to (14.599838 13.1632 16.969177) with tilt (-7.5322373 1.0153922 1.055143)
WARNING: Triclinic box skew is large. LAMMPS will run inefficiently. (src/domain.cpp:221)
  1 by 1 by 1 MPI processor grid
  restoring pair style lj/cut from restart
  restoring bond style harmonic from restart
  restoring angle style hybrid from restart
  restoring dihedral style harmonic from restart
  274 atoms
  294 bonds
  557 angles
  696 dihedrals
Finding 1-2 1-3 1-4 neighbors ...
  special bond factors lj:    0        0        1       
  special bond factors coul:  0        0        1       
     4 = max # of 1-2 neighbors
     8 = max # of 1-3 neighbors
    12 = max # of special neighbors
  special bonds CPU = 0.000 seconds
  read_restart CPU = 0.001 seconds
include ./input/angles_333-EXP-6-vasp.mod
angle_style hybrid fourier cosine/periodic
angle_coeff 1 fourier 157.882480        0.343737        0.374972        0.281246
angle_coeff 2 fourier 221.735285        0.343737        0.374972        0.281246
angle_coeff 3 fourier 83.380072        0.343737        0.374972        0.281246
angle_coeff 4 fourier 58.020602        0.343737        0.374972        0.281246
angle_coeff 5 fourier 114.246973        0.343737        0.374972        0.281246
angle_coeff 6 fourier 32.417871        0.343737        0.374972        0.281246
angle_coeff 7 fourier 90.420412        0.343737        0.374972        0.281246
angle_coeff 8 fourier 75.498766        0.343737        0.374972        0.281246
angle_coeff 9 cosine/periodic 88.853997              -1               3

# Positive deformation

variable delta equal ${up}*${len0}
variable delta equal 0.02*${len0}
variable delta equal 0.02*13.287307857401
variable deltaxy equal ${up}*xy
variable deltaxy equal 0.02*xy
variable deltaxz equal ${up}*xz
variable deltaxz equal 0.02*xz
variable deltayz equal ${up}*yz
variable deltayz equal 0.02*yz
if "${dir} == 1" then    "change_box all x delta 0 ${delta} xy delta ${deltaxy} xz delta ${deltaxz} remap units box"
if "${dir} == 2" then    "change_box all y delta 0 ${delta} yz delta ${deltayz} remap units box"
if "${dir} == 3" then    "change_box all z delta 0 ${delta} remap units box"
if "${dir} == 4" then    "change_box all yz delta ${delta} remap units box"
if "${dir} == 5" then    "change_box all xz delta ${delta} remap units box"
if "${dir} == 6" then    "change_box all xy delta ${delta} remap units box"
change_box all xy delta ${delta} remap units box
change_box all xy delta 0.26574615714802 remap units box
Changing box ...
WARNING: Triclinic box skew is large. LAMMPS will run inefficiently. (src/domain.cpp:221)
  triclinic box = (-0.10569727 -0.12410793 -0.19819518) to (14.599838 13.1632 16.969177) with tilt (-7.2664911 1.0153922 1.055143)

# Relax atoms positions

minimize ${etol} ${ftol} ${maxiter} ${maxeval}
minimize 0 ${ftol} ${maxiter} ${maxeval}
minimize 0 1e-10 ${maxiter} ${maxeval}
minimize 0 1e-10 100000 ${maxeval}
minimize 0 1e-10 100000 100000
Generated 6 of 6 mixed pair_coeff terms from arithmetic mixing rule
Neighbor list info ...
  update: every = 1 steps, delay = 0 steps, check = yes
  max neighbors/atom: 2000, page size: 100000
  master list distance cutoff = 7
  ghost atom cutoff = 7
  binsize = 3.5, bins = 7 5 5
  1 neighbor lists, perpetual/occasional/extra = 1 0 0
  (1) pair lj/cut, perpetual
      attributes: half, newton on
      pair build: half/bin/newton/tri
      stencil: half/bin/3d/tri
      bin: standard
WARNING: Inconsistent image flags
For more information see https://docs.lammps.org/err0027 (src/domain.cpp:1052)
Per MPI rank memory allocation (min/avg/max) = 17.48 | 17.48 | 17.48 Mbytes
   Step          Temp          E_pair         E_mol          TotEng         Press     
    250229   315.90634     -352.72949      347.07168      251.41449      3135.512     
    250270   315.90634     -362.90593      224.33766      118.50404      3584.8073    
Loop time of 0.0168947 on 1 procs for 41 steps with 274 atoms

100.0% CPU use with 1 MPI tasks x 1 OpenMP threads

Minimization stats:
  Stopping criterion = linesearch alpha is zero
  Energy initial, next-to-last, final = 
     -5.65781434446683  -138.568268003798  -138.568268003798
  Force two-norm initial, final = 229.0383 14.198342
  Force max component initial, final = 24.552867 2.1231545
  Final line search alpha, max atom move = 3.2645573e-11 6.9311596e-11
  Iterations, force evaluations = 41 138

MPI task timing breakdown:
Section |  min time  |  avg time  |  max time  |%varavg| %total
---------------------------------------------------------------
Pair    | 0.012278   | 0.012278   | 0.012278   |   0.0 | 72.68
Bond    | 0.003775   | 0.003775   | 0.003775   |   0.0 | 22.34
Neigh   | 0          | 0          | 0          |   0.0 |  0.00
Comm    | 0.00049251 | 0.00049251 | 0.00049251 |   0.0 |  2.92
Output  | 0          | 0          | 0          |   0.0 |  0.00
Modify  | 0          | 0          | 0          |   0.0 |  0.00
Other   |            | 0.0003487  |            |       |  2.06

Nlocal:            274 ave         274 max         274 min
Histogram: 1 0 0 0 0 0 0 0 0 0
Nghost:           1906 ave        1906 max        1906 min
Histogram: 1 0 0 0 0 0 0 0 0 0
Neighs:          15074 ave       15074 max       15074 min
Histogram: 1 0 0 0 0 0 0 0 0 0

Total # of neighbors = 15074
Ave neighs/atom = 55.014599
Ave special neighs/atom = 6.2116788
Neighbor list builds = 0
Dangerous builds = 0

# Obtain new stress tensor

variable tmp equal pe
variable e1 equal ${tmp}
variable e1 equal -138.568268003798
variable tmp equal press
variable p1 equal ${tmp}
variable p1 equal 3584.8072567133
variable tmp equal pxx
variable pxx1 equal ${tmp}
variable pxx1 equal 3524.35937527802
variable tmp equal pyy
variable pyy1 equal ${tmp}
variable pyy1 equal -183.785345253129
variable tmp equal pzz
variable pzz1 equal ${tmp}
variable pzz1 equal 7413.84774011501
variable tmp equal pxy
variable pxy1 equal ${tmp}
variable pxy1 equal -202.072865290846
variable tmp equal pxz
variable pxz1 equal ${tmp}
variable pxz1 equal -1104.1899359973
variable tmp equal pyz
variable pyz1 equal ${tmp}
variable pyz1 equal -3723.28760082438

# Compute elastic constant from pressure tensor

variable C1pos equal ${d1}
variable C1pos equal -0.141310273859499
variable C2pos equal ${d2}
variable C2pos equal 17.9488643661303
variable C3pos equal ${d3}
variable C3pos equal -16.9159454952681
variable C4pos equal ${d4}
variable C4pos equal -13.5818117545501
variable C5pos equal ${d5}
variable C5pos equal -19.5105349311321
variable C6pos equal ${d6}
variable C6pos equal 5.45429014025048

# Combine positive and negative

variable C1${dir} equal 0.5*(${C1neg}+${C1pos})
variable C16 equal 0.5*(${C1neg}+${C1pos})
variable C16 equal 0.5*(-4.4583132761585+${C1pos})
variable C16 equal 0.5*(-4.4583132761585+-0.141310273859499)
variable C2${dir} equal 0.5*(${C2neg}+${C2pos})
variable C26 equal 0.5*(${C2neg}+${C2pos})
variable C26 equal 0.5*(-23.7190297611119+${C2pos})
variable C26 equal 0.5*(-23.7190297611119+17.9488643661303)
variable C3${dir} equal 0.5*(${C3neg}+${C3pos})
variable C36 equal 0.5*(${C3neg}+${C3pos})
variable C36 equal 0.5*(9.5400261119116+${C3pos})
variable C36 equal 0.5*(9.5400261119116+-16.9159454952681)
variable C4${dir} equal 0.5*(${C4neg}+${C4pos})
variable C46 equal 0.5*(${C4neg}+${C4pos})
variable C46 equal 0.5*(15.6171562567463+${C4pos})
variable C46 equal 0.5*(15.6171562567463+-13.5818117545501)
variable C5${dir} equal 0.5*(${C5neg}+${C5pos})
variable C56 equal 0.5*(${C5neg}+${C5pos})
variable C56 equal 0.5*(21.3101501079444+${C5pos})
variable C56 equal 0.5*(21.3101501079444+-19.5105349311321)
variable C6${dir} equal 0.5*(${C6neg}+${C6pos})
variable C66 equal 0.5*(${C6neg}+${C6pos})
variable C66 equal 0.5*(17.4974313667942+${C6pos})
variable C66 equal 0.5*(17.4974313667942+5.45429014025048)

# Delete dir to make sure it is not reused

variable dir delete

# Output final values

variable C11all equal ${C11}
variable C11all equal 53.5800494991506
variable C22all equal ${C22}
variable C22all equal 28.5523371307377
variable C33all equal ${C33}
variable C33all equal 47.0587004038981

variable C12all equal 0.5*(${C12}+${C21})
variable C12all equal 0.5*(13.2255864461458+${C21})
variable C12all equal 0.5*(13.2255864461458+12.8262973175694)
variable C13all equal 0.5*(${C13}+${C31})
variable C13all equal 0.5*(16.5028116219187+${C31})
variable C13all equal 0.5*(16.5028116219187+15.8847395590098)
variable C23all equal 0.5*(${C23}+${C32})
variable C23all equal 0.5*(15.6878173179376+${C32})
variable C23all equal 0.5*(15.6878173179376+15.9537750950594)

variable C44all equal ${C44}
variable C44all equal 12.6190583928293
variable C55all equal ${C55}
variable C55all equal 12.4067472924889
variable C66all equal ${C66}
variable C66all equal 11.4758607535223

variable C14all equal 0.5*(${C14}+${C41})
variable C14all equal 0.5*(-1.00440204196813+${C41})
variable C14all equal 0.5*(-1.00440204196813+-0.352038084909349)
variable C15all equal 0.5*(${C15}+${C51})
variable C15all equal 0.5*(-0.383558741638725+${C51})
variable C15all equal 0.5*(-0.383558741638725+0.368993704146549)
variable C16all equal 0.5*(${C16}+${C61})
variable C16all equal 0.5*(-2.299811775009+${C61})
variable C16all equal 0.5*(-2.299811775009+-1.69455307215478)

variable C24all equal 0.5*(${C24}+${C42})
variable C24all equal 0.5*(1.00979319574245+${C42})
variable C24all equal 0.5*(1.00979319574245+-1.1861788651787)
variable C25all equal 0.5*(${C25}+${C52})
variable C25all equal 0.5*(2.04347888365985+${C52})
variable C25all equal 0.5*(2.04347888365985+1.6352833313292)
variable C26all equal 0.5*(${C26}+${C62})
variable C26all equal 0.5*(-2.8850826974908+${C62})
variable C26all equal 0.5*(-2.8850826974908+-2.34292836901279)

variable C34all equal 0.5*(${C34}+${C43})
variable C34all equal 0.5*(3.1429029403776+${C43})
variable C34all equal 0.5*(3.1429029403776+1.8233207658371)
variable C35all equal 0.5*(${C35}+${C53})
variable C35all equal 0.5*(-4.83001803514505+${C53})
variable C35all equal 0.5*(-4.83001803514505+-3.90125377897285)
variable C36all equal 0.5*(${C36}+${C63})
variable C36all equal 0.5*(-3.68795969167825+${C63})
variable C36all equal 0.5*(-3.68795969167825+-3.51186637404215)

variable C45all equal 0.5*(${C45}+${C54})
variable C45all equal 0.5*(-1.48707180838555+${C54})
variable C45all equal 0.5*(-1.48707180838555+-2.1803128145846)
variable C46all equal 0.5*(${C46}+${C64})
variable C46all equal 0.5*(1.0176722510981+${C64})
variable C46all equal 0.5*(1.0176722510981+3.10437211377585)
variable C56all equal 0.5*(${C56}+${C65})
variable C56all equal 0.5*(0.89980758840615+${C65})
variable C56all equal 0.5*(0.89980758840615+1.0837480241966)

# Average moduli for cubic crystals

variable C11cubic equal (${C11all}+${C22all}+${C33all})/3.0
variable C11cubic equal (53.5800494991506+${C22all}+${C33all})/3.0
variable C11cubic equal (53.5800494991506+28.5523371307377+${C33all})/3.0
variable C11cubic equal (53.5800494991506+28.5523371307377+47.0587004038981)/3.0
variable C12cubic equal (${C12all}+${C13all}+${C23all})/3.0
variable C12cubic equal (13.0259418818576+${C13all}+${C23all})/3.0
variable C12cubic equal (13.0259418818576+16.1937755904642+${C23all})/3.0
variable C12cubic equal (13.0259418818576+16.1937755904642+15.8207962064985)/3.0
variable C44cubic equal (${C44all}+${C55all}+${C66all})/3.0
variable C44cubic equal (12.6190583928293+${C55all}+${C66all})/3.0
variable C44cubic equal (12.6190583928293+12.4067472924889+${C66all})/3.0
variable C44cubic equal (12.6190583928293+12.4067472924889+11.4758607535223)/3.0

variable bulkmodulus equal (${C11cubic}+2*${C12cubic})/3.0
variable bulkmodulus equal (43.0636956779288+2*${C12cubic})/3.0
variable bulkmodulus equal (43.0636956779288+2*15.0135045596068)/3.0
variable shearmodulus1 equal ${C44cubic}
variable shearmodulus1 equal 12.1672221462802
variable shearmodulus2 equal (${C11cubic}-${C12cubic})/2.0
variable shearmodulus2 equal (43.0636956779288-${C12cubic})/2.0
variable shearmodulus2 equal (43.0636956779288-15.0135045596068)/2.0
variable poissonratio equal 1.0/(1.0+${C11cubic}/${C12cubic})
variable poissonratio equal 1.0/(1.0+43.0636956779288/${C12cubic})
variable poissonratio equal 1.0/(1.0+43.0636956779288/15.0135045596068)

print "Elastic Constant 1 1 = ${C11all}"
Elastic Constant 1 1 = 53.5800494991506
print "Elastic Constant 2 2 = ${C22all}"
Elastic Constant 2 2 = 28.5523371307377
print "Elastic Constant 3 3 = ${C33all}"
Elastic Constant 3 3 = 47.0587004038981

print "Elastic Constant 1 2 = ${C12all}"
Elastic Constant 1 2 = 13.0259418818576
print "Elastic Constant 1 3 = ${C13all}"
Elastic Constant 1 3 = 16.1937755904642
print "Elastic Constant 2 3 = ${C23all}"
Elastic Constant 2 3 = 15.8207962064985

print "Elastic Constant 4 4 = ${C44all}"
Elastic Constant 4 4 = 12.6190583928293
print "Elastic Constant 5 5 = ${C55all}"
Elastic Constant 5 5 = 12.4067472924889
print "Elastic Constant 6 6 = ${C66all}"
Elastic Constant 6 6 = 11.4758607535223

print "Elastic Constant 1 4 = ${C14all}"
Elastic Constant 1 4 = -0.67822006343874
print "Elastic Constant 1 5 = ${C15all}"
Elastic Constant 1 5 = -0.00728251874608801
print "Elastic Constant 1 6 = ${C16all}"
Elastic Constant 1 6 = -1.99718242358189

print "Elastic Constant 2 4 = ${C24all}"
Elastic Constant 2 4 = -0.088192834718125
print "Elastic Constant 2 5 = ${C25all}"
Elastic Constant 2 5 = 1.83938110749452
print "Elastic Constant 2 6 = ${C26all}"
Elastic Constant 2 6 = -2.61400553325179

print "Elastic Constant 3 4 = ${C34all}"
Elastic Constant 3 4 = 2.48311185310735
print "Elastic Constant 3 5 = ${C35all}"
Elastic Constant 3 5 = -4.36563590705895
print "Elastic Constant 3 6 = ${C36all}"
Elastic Constant 3 6 = -3.5999130328602

print "Elastic Constant 4 5 = ${C45all}"
Elastic Constant 4 5 = -1.83369231148508
print "Elastic Constant 4 6 = ${C46all}"
Elastic Constant 4 6 = 2.06102218243698
print "Elastic Constant 5 6 = ${C56all}"
Elastic Constant 5 6 = 0.991777806301375

print "Bulk Modulus = ${bulkmodulus} ${cunits}"
Bulk Modulus = 24.3635682657141 GPa
print "Shear Modulus 1 = ${shearmodulus1} ${cunits}"
Shear Modulus 1 = 12.1672221462802 GPa
print "Shear Modulus 2 = ${shearmodulus2} ${cunits}"
Shear Modulus 2 = 14.025095559161 GPa
print "Poisson Ratio = ${poissonratio}"
Poisson Ratio = 0.258509440851171

variable rho equal density
print "density (g/cm^3) = ${rho}"
density (g/cm^3) = 1.5106229389128
Total wall time: 0:00:45
