units           real
atom_style      full
boundary        p p p

pair_style      lj/cut 5.000
bond_style      harmonic
angle_style     hybrid cosine/periodic fourier
dihedral_style  harmonic

pair_modify     tail yes mix arithmetic
special_bonds   lj/coul 0.0 0.0 1.0
dielectric      1.0
box tilt        large

The 'box' command has been removed and will be ignored

read_data       ./dat/data.333-EXP-1-vasp
Reading data file ...
  triclinic box = (0 0 0) to (14.748733 13.43183 16.609572) with tilt (-6.197201 -1.004749 -1.860559)
  1 by 1 by 1 MPI processor grid
  reading atoms ...
  271 atoms
  scanning bonds ...
  4 = max bonds/atom
  scanning angles ...
  6 = max angles/atom
  scanning dihedrals ...
  24 = max dihedrals/atom
  triclinic box = (0 0 0) to (14.748733 13.43183 16.609572) with tilt (-6.197201 -1.004749 -1.860559)
  1 by 1 by 1 MPI processor grid
  reading bonds ...
  291 bonds
  reading angles ...
  551 angles
  reading dihedrals ...
  687 dihedrals
Finding 1-2 1-3 1-4 neighbors ...
  special bond factors lj:    0        0        1       
  special bond factors coul:  0        0        1       
     4 = max # of 1-2 neighbors
     8 = max # of 1-3 neighbors
    12 = max # of special neighbors
  special bonds CPU = 0.000 seconds
  read_data CPU = 0.006 seconds

#### Atom Groupings ####
group           fram     id   1:271
271 atoms in group fram
#### END Atom Groupings ####

compute am all property/atom mass
dump        atom_pos all extxyz 100 ./output/333-EXP-1-vasp.lammpstrj
dump_modify atom_pos element Si H C O mass yes
thermo          1000
thermo_style    custom step temp pe ke etotal press vol density

variable up equal 2e-2
variable cfac equal 1.0e-4
variable cunits string GPa

# Define minimization parameters
variable etol equal 0.0
variable ftol equal 1.0e-10
variable maxiter equal 100000
variable maxeval equal 100000
variable dmax equal 1.0e-2

variable temp equal 300.0
variable thermal_damp index 100.0
variable pressure_damp index 500.0

fix relax all box/relax aniso 0.0 vmax 0.001
unfix relax
minimize ${etol} ${ftol} ${maxiter} ${maxeval}
minimize 0 ${ftol} ${maxiter} ${maxeval}
minimize 0 1e-10 ${maxiter} ${maxeval}
minimize 0 1e-10 100000 ${maxeval}
minimize 0 1e-10 100000 100000
Generated 6 of 6 mixed pair_coeff terms from arithmetic mixing rule
Neighbor list info ...
  update: every = 1 steps, delay = 0 steps, check = yes
  max neighbors/atom: 2000, page size: 100000
  master list distance cutoff = 7
  ghost atom cutoff = 7
  binsize = 3.5, bins = 7 5 5
  1 neighbor lists, perpetual/occasional/extra = 1 0 0
  (1) pair lj/cut, perpetual
      attributes: half, newton on
      pair build: half/bin/newton/tri
      stencil: half/bin/3d/tri
      bin: standard
WARNING: Inconsistent image flags
For more information see https://docs.lammps.org/err0027 (src/domain.cpp:1052)
Per MPI rank memory allocation (min/avg/max) = 17.48 | 17.48 | 17.48 Mbytes
   Step          Temp          PotEng         KinEng         TotEng         Press          Volume        Density    
         0   0              991.8972       0              991.8972       74986.132      3290.3973      1.5329521    
        76   0             -51.603304      0             -51.603304      1543.6864      3290.3973      1.5329521    
Loop time of 0.0347794 on 1 procs for 76 steps with 271 atoms

99.9% CPU use with 1 MPI tasks x 1 OpenMP threads

Minimization stats:
  Stopping criterion = linesearch alpha is zero
  Energy initial, next-to-last, final = 
      991.897204471411  -51.6033044500059  -51.6033044500059
  Force two-norm initial, final = 802.70186 20.343616
  Force max component initial, final = 96.110546 3.9627581
  Final line search alpha, max atom move = 2.7366789e-11 1.0844796e-10
  Iterations, force evaluations = 76 203

MPI task timing breakdown:
Section |  min time  |  avg time  |  max time  |%varavg| %total
---------------------------------------------------------------
Pair    | 0.022502   | 0.022502   | 0.022502   |   0.0 | 64.70
Bond    | 0.0067682  | 0.0067682  | 0.0067682  |   0.0 | 19.46
Neigh   | 0.0035017  | 0.0035017  | 0.0035017  |   0.0 | 10.07
Comm    | 0.00089119 | 0.00089119 | 0.00089119 |   0.0 |  2.56
Output  | 0          | 0          | 0          |   0.0 |  0.00
Modify  | 0          | 0          | 0          |   0.0 |  0.00
Other   |            | 0.001116   |            |       |  3.21

Nlocal:            271 ave         271 max         271 min
Histogram: 1 0 0 0 0 0 0 0 0 0
Nghost:           1801 ave        1801 max        1801 min
Histogram: 1 0 0 0 0 0 0 0 0 0
Neighs:          15042 ave       15042 max       15042 min
Histogram: 1 0 0 0 0 0 0 0 0 0

Total # of neighbors = 15042
Ave neighs/atom = 55.505535
Ave special neighs/atom = 6.2140221
Neighbor list builds = 2
Dangerous builds = 0

# Generating the full routine as described in the paper for UFF
fix nvt_relax   all nvt temp 300 300 ${thermal_damp}
fix nvt_relax   all nvt temp 300 300 100.0
run 100000      # 100 picoseconds
Generated 6 of 6 mixed pair_coeff terms from arithmetic mixing rule
WARNING: Inconsistent image flags
For more information see https://docs.lammps.org/err0027 (src/domain.cpp:1052)
Per MPI rank memory allocation (min/avg/max) = 17.41 | 17.41 | 17.41 Mbytes
   Step          Temp          PotEng         KinEng         TotEng         Press          Volume        Density    
        76   0             -51.603304      0             -51.603304      1543.6864      3290.3973      1.5329521    
      1000   170.97664      40.777463      137.6052       178.38266      12544.086      3290.3973      1.5329521    
      2000   335.91154      145.93578      270.34789      416.28367      10538.09       3290.3973      1.5329521    
      3000   263.9073       120.02741      212.39753      332.42494      8197.9863      3290.3973      1.5329521    
      4000   300.46996      114.25888      241.82385      356.08273      9271.6312      3290.3973      1.5329521    
      5000   304.80047      107.31611      245.30912      352.62523      13229.594      3290.3973      1.5329521    
      6000   289.82955      120.12176      233.26025      353.38201      7253.1752      3290.3973      1.5329521    
      7000   297.90138      119.8371       239.75661      359.59371      9774.1896      3290.3973      1.5329521    
      8000   295.63682      93.569927      237.93405      331.50397      13362.62       3290.3973      1.5329521    
      9000   283.6647       99.321013      228.29866      327.61967      8790.899       3290.3973      1.5329521    
     10000   299.30351      87.663225      240.88506      328.54829      4932.5338      3290.3973      1.5329521    
     11000   308.31275      92.663674      248.13587      340.79954      8931.6182      3290.3973      1.5329521    
     12000   297.88423      82.973046      239.7428       322.71585      11146.294      3290.3973      1.5329521    
     13000   314.63877      91.055506      253.22717      344.28268      11406.507      3290.3973      1.5329521    
     14000   308.41583      88.132562      248.21883      336.35139      11029.677      3290.3973      1.5329521    
     15000   314.36925      102.96115      253.01026      355.97141      9673.9291      3290.3973      1.5329521    
     16000   297.62582      82.173341      239.53483      321.70817      2369.5882      3290.3973      1.5329521    
     17000   314.12708      109.88879      252.81535      362.70414      6977.7533      3290.3973      1.5329521    
     18000   291.70576      82.227421      234.77025      316.99768      4981.5447      3290.3973      1.5329521    
     19000   311.6407       108.77619      250.81427      359.59045      5429.2431      3290.3973      1.5329521    
     20000   295.19993      97.062164      237.58243      334.64459      11211.192      3290.3973      1.5329521    
     21000   330.77454      96.648364      266.21354      362.8619       12004.802      3290.3973      1.5329521    
     22000   275.75258      108.94268      221.93084      330.87352      11272.67       3290.3973      1.5329521    
     23000   286.69924      97.831814      230.74092      328.57273      10776.896      3290.3973      1.5329521    
     24000   314.79537      108.68631      253.3532       362.03951      6114.9771      3290.3973      1.5329521    
     25000   295.38998      81.164846      237.73538      318.90023      4329.687       3290.3973      1.5329521    
     26000   302.78142      116.2768       243.68415      359.96095      7056.6596      3290.3973      1.5329521    
     27000   298.2384       94.888402      240.02785      334.91625      8836.7816      3290.3973      1.5329521    
     28000   287.58626      106.57306      231.4548       338.02787      10364.281      3290.3973      1.5329521    
     29000   295.98797      101.32023      238.21666      339.53689      10648.711      3290.3973      1.5329521    
     30000   298.94362      82.552365      240.59542      323.14779      7747.0064      3290.3973      1.5329521    
     31000   315.3675       91.800959      253.81367      345.61463      1647.1159      3290.3973      1.5329521    
     32000   303.30637      116.91924      244.10664      361.02588      8289.7892      3290.3973      1.5329521    
     33000   297.79824      90.608245      239.6736       330.28184      8876.1201      3290.3973      1.5329521    
     34000   331.86592      108.37199      267.0919       375.4639       9518.7477      3290.3973      1.5329521    
     35000   286.55272      113.25202      230.62299      343.875        8942.8072      3290.3973      1.5329521    
     36000   297.00388      90.664887      239.03428      329.69917      11967.694      3290.3973      1.5329521    
     37000   292.03424      105.14559      235.03462      340.18021      15127.435      3290.3973      1.5329521    
     38000   298.50217      100.22192      240.24013      340.46205      1005.785       3290.3973      1.5329521    
     39000   301.66452      116.9065       242.78525      359.69176      9882.7596      3290.3973      1.5329521    
     40000   291.87807      90.482943      234.90893      325.39187      11611.549      3290.3973      1.5329521    
     41000   277.99759      100.22086      223.73766      323.95853      3698.5079      3290.3973      1.5329521    
     42000   317.78708      115.75853      255.76099      371.51952      5212.3617      3290.3973      1.5329521    
     43000   262.16855      118.92995      210.99816      329.92811      474.70415      3290.3973      1.5329521    
     44000   301.75733      99.135059      242.85995      341.995        5842.0431      3290.3973      1.5329521    
     45000   284.82841      110.04316      229.23524      339.2784       2910.835       3290.3973      1.5329521    
     46000   284.36358      72.222057      228.86113      301.08319      6741.8394      3290.3973      1.5329521    
     47000   296.03042      102.16878      238.25082      340.4196       9318.2242      3290.3973      1.5329521    
     48000   316.21149      91.990412      254.49293      346.48334      8960.9332      3290.3973      1.5329521    
     49000   290.85264      97.149024      234.08365      331.23267      12453.106      3290.3973      1.5329521    
     50000   298.69546      108.40114      240.3957       348.79684      1307.1827      3290.3973      1.5329521    
     51000   289.6127       84.522768      233.08572      317.60849      7028.0623      3290.3973      1.5329521    
     52000   306.08282      88.902827      246.34118      335.24401      8652.4067      3290.3973      1.5329521    
     53000   311.04179      96.725164      250.33225      347.05741      8176.8334      3290.3973      1.5329521    
     54000   281.51098      77.797953      226.5653       304.36326      5099.5057      3290.3973      1.5329521    
     55000   302.54478      92.387289      243.4937       335.88099      8427.0268      3290.3973      1.5329521    
     56000   280.4893       110.65862      225.74304      336.40166      12170.924      3290.3973      1.5329521    
     57000   299.1665       119.47571      240.7748       360.25051      3802.8187      3290.3973      1.5329521    
     58000   299.81615      86.260403      241.29765      327.55805      1813.0746      3290.3973      1.5329521    
     59000   328.89588      105.70573      264.70156      370.40729      6354.555       3290.3973      1.5329521    
     60000   313.02334      82.932377      251.92704      334.85942      9690.5713      3290.3973      1.5329521    
     61000   291.62         85.681373      234.70123      320.3826       3136.8513      3290.3973      1.5329521    
     62000   293.02838      78.991402      235.83472      314.82613      12502.247      3290.3973      1.5329521    
     63000   301.60697      101.66697      242.73894      344.4059       11137.496      3290.3973      1.5329521    
     64000   279.96585      92.529672      225.32175      317.85143      10024.309      3290.3973      1.5329521    
     65000   315.3014       127.85037      253.76047      381.61083      5787.3602      3290.3973      1.5329521    
     66000   291.40995      100.66278      234.53218      335.19496      16836.024      3290.3973      1.5329521    
     67000   287.91295      83.347489      231.71773      315.06522      9764.272       3290.3973      1.5329521    
     68000   316.04147      104.36112      254.35609      358.71721      8318.8056      3290.3973      1.5329521    
     69000   307.88401      99.125131      247.79082      346.91595      5768.8556      3290.3973      1.5329521    
     70000   267.95269      112.08856      215.65334      327.7419       7837.3729      3290.3973      1.5329521    
     71000   309.78325      100.3049       249.31936      349.62426      8063.9839      3290.3973      1.5329521    
     72000   298.99116      92.490734      240.63368      333.12442      7283.0246      3290.3973      1.5329521    
     73000   311.96466      75.003284      251.07499      326.07828      5513.2462      3290.3973      1.5329521    
     74000   295.53271      93.796531      237.85026      331.64679      8254.0055      3290.3973      1.5329521    
     75000   311.81806      96.475725      250.95701      347.43273      8098.1293      3290.3973      1.5329521    
     76000   293.54465      81.440383      236.25023      317.69061      10592.846      3290.3973      1.5329521    
     77000   329.49104      100.33608      265.18056      365.51664      13257.935      3290.3973      1.5329521    
     78000   286.82195      101.79514      230.83967      332.63481      9864.5845      3290.3973      1.5329521    
     79000   313.04412      81.958825      251.94377      333.90259      4111.412       3290.3973      1.5329521    
     80000   300.48783      101.35366      241.83823      343.1919       11323.381      3290.3973      1.5329521    
     81000   317.93009      105.45595      255.87608      361.33204     -688.07423      3290.3973      1.5329521    
     82000   302.68096      103.52972      243.6033       347.13301      8133.7492      3290.3973      1.5329521    
     83000   299.00188      91.034744      240.64231      331.67705      5141.0443      3290.3973      1.5329521    
     84000   313.46947      89.264679      252.28609      341.55077      9548.6797      3290.3973      1.5329521    
     85000   312.02848      88.739806      251.12636      339.86617      8126.3976      3290.3973      1.5329521    
     86000   307.19864      114.7503       247.23922      361.98952      8333.0643      3290.3973      1.5329521    
     87000   282.33146      94.447963      227.22565      321.67361      10253.159      3290.3973      1.5329521    
     88000   327.61346      117.21184      263.66944      380.88128      8103.9224      3290.3973      1.5329521    
     89000   306.59968      94.810508      246.75716      341.56767      8974.448       3290.3973      1.5329521    
     90000   306.33356      66.036823      246.54298      312.57981      10239.414      3290.3973      1.5329521    
     91000   296.89962      104.82145      238.95037      343.77182      7844.1045      3290.3973      1.5329521    
     92000   279.48892      92.766588      224.93792      317.7045       5700.4434      3290.3973      1.5329521    
     93000   291.5073       106.38372      234.61053      340.99425      6766.0275      3290.3973      1.5329521    
     94000   330.49956      100.09779      265.99223      366.09002      4037.4942      3290.3973      1.5329521    
     95000   307.03155      88.605917      247.10474      335.71065      8222.8129      3290.3973      1.5329521    
     96000   288.5737       97.644511      232.24951      329.89402      11809.371      3290.3973      1.5329521    
     97000   295.80637      105.68131      238.0705       343.75181      4588.946       3290.3973      1.5329521    
     98000   303.82372      92.458305      244.52301      336.98132      13182.686      3290.3973      1.5329521    
     99000   316.20868      93.710099      254.49066      348.20076      6037.052       3290.3973      1.5329521    
    100000   317.26196      79.910211      255.33836      335.24857      8697.8691      3290.3973      1.5329521    
    100076   286.42456      94.495553      230.51985      325.0154       9190.4056      3290.3973      1.5329521    
Loop time of 16.2714 on 1 procs for 100000 steps with 271 atoms

Performance: 530.995 ns/day, 0.045 hours/ns, 6145.770 timesteps/s, 1.666 Matom-step/s
99.7% CPU use with 1 MPI tasks x 1 OpenMP threads

MPI task timing breakdown:
Section |  min time  |  avg time  |  max time  |%varavg| %total
---------------------------------------------------------------
Pair    | 9.0288     | 9.0288     | 9.0288     |   0.0 | 55.49
Bond    | 2.719      | 2.719      | 2.719      |   0.0 | 16.71
Neigh   | 3.2992     | 3.2992     | 3.2992     |   0.0 | 20.28
Comm    | 0.44775    | 0.44775    | 0.44775    |   0.0 |  2.75
Output  | 0.39433    | 0.39433    | 0.39433    |   0.0 |  2.42
Modify  | 0.27955    | 0.27955    | 0.27955    |   0.0 |  1.72
Other   |            | 0.1028     |            |       |  0.63

Nlocal:            271 ave         271 max         271 min
Histogram: 1 0 0 0 0 0 0 0 0 0
Nghost:           1821 ave        1821 max        1821 min
Histogram: 1 0 0 0 0 0 0 0 0 0
Neighs:          15025 ave       15025 max       15025 min
Histogram: 1 0 0 0 0 0 0 0 0 0

Total # of neighbors = 15025
Ave neighs/atom = 55.442804
Ave special neighs/atom = 6.2140221
Neighbor list builds = 2029
Dangerous builds = 0
unfix           nvt_relax

fix npt_relax   all npt temp 300 300 ${thermal_damp} iso 0 0 ${pressure_damp}
fix npt_relax   all npt temp 300 300 100.0 iso 0 0 ${pressure_damp}
fix npt_relax   all npt temp 300 300 100.0 iso 0 0 500.0
run 100000      # 100 picoseconds
Generated 6 of 6 mixed pair_coeff terms from arithmetic mixing rule
WARNING: Inconsistent image flags
For more information see https://docs.lammps.org/err0027 (src/domain.cpp:1052)
Per MPI rank memory allocation (min/avg/max) = 17.42 | 17.42 | 17.42 Mbytes
   Step          Temp          PotEng         KinEng         TotEng         Press          Volume        Density    
    100076   286.42456      94.495553      230.51985      325.0154       9190.4056      3290.3973      1.5329521    
    101000   327.01857      106.47041      263.19066      369.66108     -4030.6748      3428.809       1.471071     
    102000   290.0193       93.53888       233.41296      326.95184     -4618.4583      3459.1027      1.4581878    
    103000   286.35414      82.908611      230.46317      313.37178      1296.782       3421.1954      1.4743447    
    104000   321.24952      95.527414      258.54763      354.07504      6503.7384      3416.0895      1.4765484    
    105000   282.0564       78.516847      227.00427      305.52111     -3365.0005      3426.9048      1.4718884    
    106000   316.79743      74.639045      254.9645       329.60355     -8311.5734      3474.1868      1.4518567    
    107000   317.00458      64.718775      255.13121      319.84999      5695.5244      3436.2855      1.4678703    
    108000   294.77661      91.021684      237.24173      328.26342     -1194.4384      3401.0549      1.4830756    
    109000   303.96865      90.599453      244.63966      335.23911      3103.55        3394.2849      1.4860336    
    110000   287.0714       77.444745      231.04043      308.48518     -1177.3352      3470.6617      1.4533314    
    111000   287.66035      101.60872      231.51443      333.12315     -135.00961      3418.9677      1.4753054    
    112000   287.41896      75.252458      231.32016      306.57262      3836.6782      3452.3442      1.4610425    
    113000   297.31072      68.748598      239.28123      308.02983      9364.5247      3455.6278      1.4596542    
    114000   305.25575      105.32413      245.67554      350.99967     -468.46539      3414.5163      1.4772287    
    115000   314.60657      86.329478      253.20125      339.53073      6313.6896      3414.1842      1.4773724    
    116000   278.59752      69.471935      224.22049      293.69243     -1364.6173      3423.1436      1.4735056    
    117000   298.26805      80.962119      240.0517       321.01382     -4123.9947      3528.0407      1.4296948    
    118000   299.04597      100.52434      240.67779      341.20213      1110.3336      3482.1456      1.4485383    
    119000   309.39474      72.747645      249.00667      321.75432     -3149.9637      3476.5563      1.4508672    
    120000   297.64035      82.624185      239.54652      322.17071     -1825.347       3407.8194      1.4801317    
    121000   287.29212      84.849066      231.21807      316.06714      696.01495      3456.6557      1.4592201    
    122000   286.83557      65.73324       230.85064      296.58388      3328.0758      3427.4285      1.4716635    
    123000   286.86437      95.642789      230.87382      326.51661     -1170.9332      3493.176       1.4439643    
    124000   287.003        72.242321      230.98539      303.22771      6183.456       3433.926       1.4688789    
    125000   311.4294       65.84897       250.64421      316.49318     -5825.6887      3470.2169      1.4535177    
    126000   261.19724      103.143        210.21643      313.35942      4099.8459      3435.3701      1.4682614    
    127000   304.46255      64.945376      245.03716      309.98253     -6311.645       3472.8013      1.4524359    
    128000   303.93235      68.131567      244.61044      312.74201     -1120.8567      3439.9981      1.4662861    
    129000   307.52212      77.440022      247.49956      324.93958      5157.2127      3387.2354      1.4891263    
    130000   320.93851      72.853732      258.29732      331.15105     -2716.3043      3471.6371      1.452923     
    131000   299.09904      62.470319      240.72051      303.19083      3848.092       3458.3657      1.4584986    
    132000   309.1729       102.78428      248.82813      351.61242      6483.4319      3469.0712      1.4539977    
    133000   303.13022      88.937128      243.96487      332.902        1958.2198      3417.6601      1.4758698    
    134000   278.93153      73.536821      224.48932      298.02614     -1783.1736      3477.3629      1.4505307    
    135000   281.51367      103.46944      226.56747      330.03691     -3360.6317      3468.0099      1.4544426    
    136000   272.12482      61.082196      219.01115      280.09334      3421.4962      3394.6191      1.4858873    
    137000   302.73349      87.593019      243.64557      331.23859      3741.9655      3419.0485      1.4752705    
    138000   298.63263      76.785444      240.34513      317.13058      560.81495      3472.5101      1.4525578    
    139000   295.28303      84.947232      237.64931      322.59654      128.53627      3477.0745      1.450651     
    140000   289.19456      83.114377      232.74919      315.86357      1147.2092      3461.2166      1.4572973    
    141000   277.52637      98.256722      223.35842      321.61514      3672.849       3469.4601      1.4538347    
    142000   312.49246      90.094811      251.49978      341.59459     -4852.2488      3487.0363      1.4465067    
    143000   295.23842      84.572078      237.6134       322.18548     -390.75751      3417.4867      1.4759447    
    144000   271.35709      83.29845       218.39327      301.69172     -2688.3904      3465.2981      1.4555808    
    145000   307.66836      88.790757      247.61725      336.40801      1499.2803      3472.0301      1.4527586    
    146000   276.8687       76.937852      222.82911      299.76696      1180.0375      3462.9509      1.4565674    
    147000   296.29115      73.438134      238.46066      311.8988       1821.4648      3473.3194      1.4522193    
    148000   288.01865      79.351062      231.8028       311.15386     -5588.9596      3391.1894      1.4873901    
    149000   295.68647      79.033394      237.97401      317.0074      -9697.4972      3488.3358      1.4459678    
    150000   305.85097      88.046772      246.15458      334.20135      1651.2165      3470.0668      1.4535805    
    151000   287.0403       87.774481      231.01541      318.78989      726.26064      3441.0319      1.4658456    
    152000   322.52         78.458338      259.57013      338.02847     -68.593121      3423.2962      1.47344      
    153000   319.0109       83.963827      256.74594      340.70977      5004.818       3372.6768      1.4955544    
    154000   302.87026      73.773188      243.75565      317.52884     -2077.3532      3415.3137      1.4768838    
    155000   294.30714      72.065212      236.86389      308.92911      3757.071       3461.0339      1.4573742    
    156000   292.67595      85.168188      235.55108      320.71927     -4578.7963      3442.362       1.4652792    
    157000   303.03358      82.998651      243.88709      326.88574     -2371.9606      3447.45        1.4631166    
    158000   286.86684      87.977035      230.8758       318.85284      2671.9511      3448.8411      1.4625265    
    159000   301.92868      97.688427      242.99786      340.68628     -4327.3047      3480.2832      1.4493135    
    160000   278.34819      75.246533      224.01983      299.26637      237.2444       3461.7842      1.4570583    
    161000   314.54433      93.867436      253.15116      347.0186       5297.0109      3429.0917      1.4709497    
    162000   316.9372       69.368807      255.07699      324.4458       5231.7534      3368.4986      1.4974094    
    163000   307.59394      101.59909      247.55736      349.15644     -1183.9248      3459.8442      1.4578753    
    164000   276.7163       91.835021      222.70646      314.54148      1725.9054      3498.6647      1.441699     
    165000   293.25995      73.196427      236.0211       309.21753      1441.4023      3444.5278      1.4643579    
    166000   308.21617      114.49783      248.05814      362.55598      383.53076      3438.6199      1.4668738    
    167000   302.02229      91.371747      243.07319      334.44494      1576.8391      3445.5054      1.4639424    
    168000   290.60036      77.110487      233.88061      310.9911       814.48858      3421.7083      1.4741238    
    169000   301.30857      74.076866      242.49878      316.57564      2906.8474      3439.1832      1.4666336    
    170000   311.88552      76.004463      251.01131      327.01577     -933.62835      3466.2749      1.4551707    
    171000   307.65231      87.667569      247.60433      335.2719      -3431.4557      3476.6653      1.4508217    
    172000   275.07453      50.889034      221.38513      272.27417      2347.1542      3434.2889      1.4687237    
    173000   294.59308      100.13965      237.09402      337.23367      6858.879       3473.4437      1.4521673    
    174000   320.69147      74.748591      258.0985       332.84709      6006.3469      3420.5898      1.4746058    
    175000   280.98911      98.090811      226.14529      324.2361       834.17682      3428.971       1.4710015    
    176000   300.24878      85.103855      241.64583      326.74969     -763.58974      3430.943       1.470156     
    177000   300.36977      72.03035       241.74321      313.77356      10572.484      3404.6007      1.481531     
    178000   309.76819      104.20167      249.30724      353.50891      2748.0367      3426.5162      1.4720553    
    179000   283.27858      84.267632      227.9879       312.25553     -1493.4016      3446.0318      1.4637188    
    180000   317.77532      104.31656      255.75153      360.06809      5182.9612      3450.773       1.4617077    
    181000   290.04179      79.652278      233.43106      313.08334     -901.93746      3447.4357      1.4631227    
    182000   281.93975      67.568133      226.91039      294.47852      1158.4395      3454.7226      1.4600366    
    183000   299.93242      89.919042      241.39123      331.31027      1549.7921      3418.3392      1.4755766    
    184000   316.7113       87.626088      254.89518      342.52127      694.89024      3425.4869      1.4724977    
    185000   291.72301      82.900137      234.78414      317.68428      2493.1545      3380.4102      1.492133     
    186000   312.52827      109.81952      251.5286       361.34812     -3089.3592      3396.99        1.4848503    
    187000   303.81139      86.593686      244.51309      331.10678     -6411.0803      3450.777       1.461706     
    188000   298.98685      84.796352      240.63021      325.42656     -3108.5351      3410.5492      1.478947     
    189000   304.21681      80.69011       244.83938      325.52949      4515.6511      3422.7834      1.4736607    
    190000   297.08843      67.941215      239.10233      307.04354      1699.3388      3445.4892      1.4639493    
    191000   300.75549      98.87062       242.05365      340.92427      3924.3026      3424.2762      1.4730183    
    192000   274.49329      79.393681      220.91734      300.31102      2754.411       3448.9333      1.4624874    
    193000   304.63843      86.265934      245.17871      331.44465      3492.8951      3457.6588      1.4587968    
    194000   303.82216      66.724803      244.52176      311.24657     -4143.9282      3480.0058      1.449429     
    195000   334.08246      94.229069      268.87582      363.10489     -4537.8603      3482.8342      1.448252     
    196000   305.0669       79.36726       245.52355      324.89081      3034.6682      3431.3112      1.4699982    
    197000   293.57301      75.95151       236.27305      312.22456      5688.209       3419.1183      1.4752404    
    198000   291.65197      90.01573       234.72696      324.74269      1141.5001      3469.2247      1.4539333    
    199000   290.01942      73.537062      233.41306      306.95012     -67.308589      3453.4343      1.4605813    
    200000   290.78113      84.097687      234.0261       318.12379     -1397.9899      3403.3234      1.482087     
    200076   282.78225      77.373342      227.58845      304.96179      3619.7431      3399.5746      1.4837214    
Loop time of 18.2875 on 1 procs for 100000 steps with 271 atoms

Performance: 472.453 ns/day, 0.051 hours/ns, 5468.203 timesteps/s, 1.482 Matom-step/s
99.7% CPU use with 1 MPI tasks x 1 OpenMP threads

MPI task timing breakdown:
Section |  min time  |  avg time  |  max time  |%varavg| %total
---------------------------------------------------------------
Pair    | 9.2193     | 9.2193     | 9.2193     |   0.0 | 50.41
Bond    | 3.7186     | 3.7186     | 3.7186     |   0.0 | 20.33
Neigh   | 3.7427     | 3.7427     | 3.7427     |   0.0 | 20.47
Comm    | 0.44837    | 0.44837    | 0.44837    |   0.0 |  2.45
Output  | 0.40458    | 0.40458    | 0.40458    |   0.0 |  2.21
Modify  | 0.63813    | 0.63813    | 0.63813    |   0.0 |  3.49
Other   |            | 0.1159     |            |       |  0.63

Nlocal:            271 ave         271 max         271 min
Histogram: 1 0 0 0 0 0 0 0 0 0
Nghost:           1775 ave        1775 max        1775 min
Histogram: 1 0 0 0 0 0 0 0 0 0
Neighs:          14599 ave       14599 max       14599 min
Histogram: 1 0 0 0 0 0 0 0 0 0

Total # of neighbors = 14599
Ave neighs/atom = 53.870849
Ave special neighs/atom = 6.2140221
Neighbor list builds = 2297
Dangerous builds = 0
unfix           npt_relax

# fix nvt_heat    all nvt temp 300 1000 ${thermal_damp}
# run 100000      # 100 picoseconds
# unfix           nvt_heat
#
# fix npt_heat    all npt temp 1000 1000 ${thermal_damp} iso 0 0 ${pressure_damp}
# run 100000      # 100 picoseconds
# unfix           npt_heat
#
# fix cooling_npt all npt temp 1000 300 ${thermal_damp} iso 0 0 ${pressure_damp}
# run 700000      # 700 picoseconds
# unfix           cooling_npt
#
# fix npt_final   all npt temp 300 300 ${thermal_damp} iso 0 0 100
# run 100000      # 100 picoseconds
# unfix           npt_final

# density computation
variable rho equal density
fix integrate  all npt temp ${temp} ${temp} ${thermal_damp} iso 0 0 ${pressure_damp}
fix integrate  all npt temp 300 ${temp} ${thermal_damp} iso 0 0 ${pressure_damp}
fix integrate  all npt temp 300 300 ${thermal_damp} iso 0 0 ${pressure_damp}
fix integrate  all npt temp 300 300 100.0 iso 0 0 ${pressure_damp}
fix integrate  all npt temp 300 300 100.0 iso 0 0 500.0
fix rho50k all ave/time 10 5000 50000 v_rho mode scalar ave one
run 50000
Generated 6 of 6 mixed pair_coeff terms from arithmetic mixing rule
WARNING: Inconsistent image flags
For more information see https://docs.lammps.org/err0027 (src/domain.cpp:1052)
Per MPI rank memory allocation (min/avg/max) = 17.42 | 17.42 | 17.42 Mbytes
   Step          Temp          PotEng         KinEng         TotEng         Press          Volume        Density    
    200076   282.78225      77.373342      227.58845      304.96179      3619.7431      3399.5746      1.4837214    
    201000   326.69873      104.7768       262.93325      367.71005      892.42348      3446.4933      1.4635228    
    202000   292.65364      84.939163      235.53313      320.47229     -2063.4659      3474.4024      1.4517666    
    203000   302.84927      101.65957      243.73876      345.39833      5213.4143      3400.5098      1.4833133    
    204000   294.94941      92.102621      237.3808       329.48342      2454.3242      3475.6596      1.4512415    
    205000   306.22387      76.319355      246.4547       322.77406     -2264.3156      3459.8041      1.4578922    
    206000   303.53346      84.971962      244.28941      329.26137     -2458.3699      3450.0856      1.4619989    
    207000   296.26104      88.817478      238.43643      327.25391     -1210.237       3464.6182      1.4558665    
    208000   289.06127      86.902742      232.64192      319.54466     -2559.3844      3378.9224      1.49279      
    209000   326.14471      71.016625      262.48737      333.50399     -295.12577      3448.328       1.4627441    
    210000   301.65744      74.602918      242.77955      317.38247     -6549.1484      3504.0003      1.4395037    
    211000   320.31098      91.039476      257.79227      348.83175     -2453.286       3494.6008      1.4433756    
    212000   294.93158      79.612921      237.36646      316.97938      437.01673      3455.1877      1.4598401    
    213000   307.08548      78.935273      247.14814      326.08341      165.76236      3463.969       1.4561393    
    214000   295.45181      101.52096      237.78514      339.30611     -2422.8222      3462.4266      1.456788     
    215000   297.5282       72.184516      239.45627      311.64078     -2897.0805      3442.0688      1.465404     
    216000   296.48862      101.81754      238.61959      340.43712     -880.09484      3489.4283      1.4455152    
    217000   286.84296      97.304316      230.85658      328.1609       6037.0542      3398.3291      1.4842652    
    218000   284.93362      64.634712      229.31991      293.95462      1380.2303      3455.7964      1.4595829    
    219000   290.10982      99.341245      233.48581      332.82706     -3864.3009      3458.0016      1.4586522    
    220000   289.25592      62.324812      232.79858      295.12339      2412.7048      3413.329       1.4777426    
    221000   293.72421      95.627687      236.39474      332.02243     -1075.3338      3453.1761      1.4606905    
    222000   281.91025      90.709323      226.88665      317.59597      6026.1419      3419.6261      1.4750214    
    223000   331.43538      72.150343      266.7454       338.89574     -5383.7833      3477.2589      1.450574     
    224000   285.14085      68.988739      229.48669      298.47543      3533.0515      3426.7658      1.4719481    
    225000   283.52283      100.23124      228.18448      328.41572     -1833.4         3455.5428      1.4596901    
    226000   295.65324      71.369294      237.94726      309.31655      12742.138      3445.2659      1.4640442    
    227000   301.3525       72.307172      242.53413      314.8413       387.814        3436.6066      1.4677332    
    228000   315.33702      79.821304      253.78913      333.61044      933.33482      3434.3763      1.4686863    
    229000   308.99015      75.684728      248.68105      324.36578     -10240.528      3491.3708      1.4447109    
    230000   299.79762      74.987181      241.28273      316.26991      1595.8028      3427.2046      1.4717597    
    231000   307.27225      77.840493      247.29846      325.13895     -7837.9992      3443.13        1.4649524    
    232000   289.62677      81.090786      233.09704      314.18783      3029.2411      3443.7106      1.4647054    
    233000   300.76516      97.550805      242.06143      339.61223     -469.1558       3454.5331      1.4601167    
    234000   302.93614      62.537516      243.80867      306.34619      13.021314      3423.2312      1.473468     
    235000   316.96596      97.48841       255.10013      352.58854     -4928.7135      3493.1694      1.4439671    
    236000   300.2623       72.119259      241.65672      313.77598      863.32442      3449.7776      1.4621295    
    237000   291.51647      71.589788      234.61791      306.2077       4155.2911      3402.4763      1.482456     
    238000   312.42669      90.374709      251.44685      341.82155      8350.8474      3421.2753      1.4743103    
    239000   293.4484       65.851486      236.17277      302.02425      2633.3652      3404.6842      1.4814947    
    240000   298.80982      95.133499      240.48774      335.62124     -77.248307      3454.6355      1.4600734    
    241000   286.85741      76.006513      230.86821      306.87472      6847.9117      3421.0346      1.474414     
    242000   329.05049      77.540417      264.82599      342.36641     -3262.8688      3450.2818      1.4619158    
    243000   298.58009      54.41273       240.30285      294.71558     -668.007        3432.1724      1.4696294    
    244000   313.07309      74.341231      251.96708      326.30831      4215.7049      3429.9678      1.470574     
    245000   282.66852      80.63114       227.49692      308.12806     -5753.9197      3491.2154      1.4447752    
    246000   289.1202       72.625844      232.68935      305.31519      801.89389      3481.2297      1.4489195    
    247000   314.25474      106.63888      252.9181       359.55697     -3294.4155      3458.4485      1.4584637    
    248000   307.02731      85.755484      247.10132      332.85681     -2263.3367      3466.0803      1.4552523    
    249000   304.5673       75.57955       245.12146      320.70101     -1521.324       3447.8386      1.4629517    
    250000   309.02417      74.666032      248.70843      323.37446     -4636.8172      3471.6587      1.452914     
    250076   306.92185      87.332912      247.01645      334.34936      1467.369       3439.232       1.4666127    
Loop time of 8.77298 on 1 procs for 50000 steps with 271 atoms

Performance: 492.421 ns/day, 0.049 hours/ns, 5699.318 timesteps/s, 1.545 Matom-step/s
99.7% CPU use with 1 MPI tasks x 1 OpenMP threads

MPI task timing breakdown:
Section |  min time  |  avg time  |  max time  |%varavg| %total
---------------------------------------------------------------
Pair    | 4.4151     | 4.4151     | 4.4151     |   0.0 | 50.33
Bond    | 1.7854     | 1.7854     | 1.7854     |   0.0 | 20.35
Neigh   | 1.7895     | 1.7895     | 1.7895     |   0.0 | 20.40
Comm    | 0.2162     | 0.2162     | 0.2162     |   0.0 |  2.46
Output  | 0.20304    | 0.20304    | 0.20304    |   0.0 |  2.31
Modify  | 0.30747    | 0.30747    | 0.30747    |   0.0 |  3.50
Other   |            | 0.0562     |            |       |  0.64

Nlocal:            271 ave         271 max         271 min
Histogram: 1 0 0 0 0 0 0 0 0 0
Nghost:           1759 ave        1759 max        1759 min
Histogram: 1 0 0 0 0 0 0 0 0 0
Neighs:          14313 ave       14313 max       14313 min
Histogram: 1 0 0 0 0 0 0 0 0 0

Total # of neighbors = 14313
Ave neighs/atom = 52.815498
Ave special neighs/atom = 6.2140221
Neighbor list builds = 1150
Dangerous builds = 0
unfix integrate
unfix rho50k

# Compute initial state
fix 3 all box/relax  aniso 0.0
minimize ${etol} ${ftol} ${maxiter} ${maxeval}
minimize 0 ${ftol} ${maxiter} ${maxeval}
minimize 0 1e-10 ${maxiter} ${maxeval}
minimize 0 1e-10 100000 ${maxeval}
minimize 0 1e-10 100000 100000
Generated 6 of 6 mixed pair_coeff terms from arithmetic mixing rule
WARNING: Energy due to 3 extra global DOFs will be included in minimizer energies
 (src/min.cpp:222)
WARNING: Inconsistent image flags
For more information see https://docs.lammps.org/err0027 (src/domain.cpp:1052)
Per MPI rank memory allocation (min/avg/max) = 18.53 | 18.53 | 18.53 Mbytes
   Step          Temp          PotEng         KinEng         TotEng         Press          Volume        Density    
    250076   306.92185      87.332912      247.01645      334.34936      1467.369       3439.232       1.4666127    
    250264   306.92185     -74.929077      247.01645      172.08737      3006.8102      3439.8054      1.4663683    
Loop time of 0.041331 on 1 procs for 188 steps with 271 atoms

100.0% CPU use with 1 MPI tasks x 1 OpenMP threads

Minimization stats:
  Stopping criterion = linesearch alpha is zero
  Energy initial, next-to-last, final = 
      87.3329115150129  -74.9290770071091  -74.9290770071091
  Force two-norm initial, final = 592.37798 105.35566
  Force max component initial, final = 135.00191 15.058476
  Final line search alpha, max atom move = 8.3545829e-13 1.2580729e-11
  Iterations, force evaluations = 188 211

MPI task timing breakdown:
Section |  min time  |  avg time  |  max time  |%varavg| %total
---------------------------------------------------------------
Pair    | 0.024582   | 0.024582   | 0.024582   |   0.0 | 59.48
Bond    | 0.0094458  | 0.0094458  | 0.0094458  |   0.0 | 22.85
Neigh   | 0          | 0          | 0          |   0.0 |  0.00
Comm    | 0.00095203 | 0.00095203 | 0.00095203 |   0.0 |  2.30
Output  | 0.00086341 | 0.00086341 | 0.00086341 |   0.0 |  2.09
Modify  | 0          | 0          | 0          |   0.0 |  0.00
Other   |            | 0.005488   |            |       | 13.28

Nlocal:            271 ave         271 max         271 min
Histogram: 1 0 0 0 0 0 0 0 0 0
Nghost:           1765 ave        1765 max        1765 min
Histogram: 1 0 0 0 0 0 0 0 0 0
Neighs:          14324 ave       14324 max       14324 min
Histogram: 1 0 0 0 0 0 0 0 0 0

Total # of neighbors = 14324
Ave neighs/atom = 52.856089
Ave special neighs/atom = 6.2140221
Neighbor list builds = 0
Dangerous builds = 0

variable tmp equal pxx
variable pxx0 equal ${tmp}
variable pxx0 equal 3415.47935178721
variable tmp equal pyy
variable pyy0 equal ${tmp}
variable pyy0 equal 2578.93523592443
variable tmp equal pzz
variable pzz0 equal ${tmp}
variable pzz0 equal 3026.01602691984
variable tmp equal pyz
variable pyz0 equal ${tmp}
variable pyz0 equal 242.857803636213
variable tmp equal pxz
variable pxz0 equal ${tmp}
variable pxz0 equal -2117.48179513113
variable tmp equal pxy
variable pxy0 equal ${tmp}
variable pxy0 equal 105.41065984637

variable tmp equal lx
variable lx0 equal ${tmp}
variable lx0 equal 15.0041667199516
variable tmp equal ly
variable ly0 equal ${tmp}
variable ly0 equal 13.6112790951766
variable tmp equal lz
variable lz0 equal ${tmp}
variable lz0 equal 16.8431396103833

# These formulas define the derivatives w.r.t. strain components
# Constants uses $, variables use v_
variable d1 equal -(v_pxx1-${pxx0})/(v_delta/v_len0)*${cfac}
variable d1 equal -(v_pxx1-3415.47935178721)/(v_delta/v_len0)*${cfac}
variable d1 equal -(v_pxx1-3415.47935178721)/(v_delta/v_len0)*0.0001
variable d2 equal -(v_pyy1-${pyy0})/(v_delta/v_len0)*${cfac}
variable d2 equal -(v_pyy1-2578.93523592443)/(v_delta/v_len0)*${cfac}
variable d2 equal -(v_pyy1-2578.93523592443)/(v_delta/v_len0)*0.0001
variable d3 equal -(v_pzz1-${pzz0})/(v_delta/v_len0)*${cfac}
variable d3 equal -(v_pzz1-3026.01602691984)/(v_delta/v_len0)*${cfac}
variable d3 equal -(v_pzz1-3026.01602691984)/(v_delta/v_len0)*0.0001
variable d4 equal -(v_pyz1-${pyz0})/(v_delta/v_len0)*${cfac}
variable d4 equal -(v_pyz1-242.857803636213)/(v_delta/v_len0)*${cfac}
variable d4 equal -(v_pyz1-242.857803636213)/(v_delta/v_len0)*0.0001
variable d5 equal -(v_pxz1-${pxz0})/(v_delta/v_len0)*${cfac}
variable d5 equal -(v_pxz1--2117.48179513113)/(v_delta/v_len0)*${cfac}
variable d5 equal -(v_pxz1--2117.48179513113)/(v_delta/v_len0)*0.0001
variable d6 equal -(v_pxy1-${pxy0})/(v_delta/v_len0)*${cfac}
variable d6 equal -(v_pxy1-105.41065984637)/(v_delta/v_len0)*${cfac}
variable d6 equal -(v_pxy1-105.41065984637)/(v_delta/v_len0)*0.0001

# displace_atoms all random ${atomjiggle} ${atomjiggle} ${atomjiggle} 87287 units box

# Write restart
unfix 3
write_restart restart_333-EXP-1-vasp.equil
System init for write_restart ...
Generated 6 of 6 mixed pair_coeff terms from arithmetic mixing rule

# uxx Perturbation

variable dir equal 1
include ./input/displace_333-EXP-1-vasp.mod
if "${dir} == 1" then    "variable len0 equal ${lx0}"
variable len0 equal ${lx0}
variable len0 equal 15.0041667199516
if "${dir} == 2" then    "variable len0 equal ${ly0}"
if "${dir} == 3" then    "variable len0 equal ${lz0}"
if "${dir} == 4" then    "variable len0 equal ${lz0}"
if "${dir} == 5" then    "variable len0 equal ${lz0}"
if "${dir} == 6" then    "variable len0 equal ${ly0}"

# Reset box and simulation parameters

clear
OMP_NUM_THREADS environment is not set. Defaulting to 1 thread.
  using 1 OpenMP thread(s) per MPI task
box tilt large

The 'box' command has been removed and will be ignored

read_restart restart_333-EXP-1-vasp.equil
Reading restart file ...
  restart file = 10 Sep 2025, LAMMPS = 10 Sep 2025
  restoring atom style full from restart
  triclinic box = (-0.12771686 -0.089724548 -0.11678381) to (14.87645 13.521555 16.726356) with tilt (-6.2799955 -1.018878 -1.8867226)
  1 by 1 by 1 MPI processor grid
  restoring pair style lj/cut from restart
  restoring bond style harmonic from restart
  restoring angle style hybrid from restart
  restoring dihedral style harmonic from restart
  271 atoms
  291 bonds
  551 angles
  687 dihedrals
Finding 1-2 1-3 1-4 neighbors ...
  special bond factors lj:    0        0        1       
  special bond factors coul:  0        0        1       
     4 = max # of 1-2 neighbors
     8 = max # of 1-3 neighbors
    12 = max # of special neighbors
  special bonds CPU = 0.000 seconds
  read_restart CPU = 0.002 seconds
include ./input/angles_333-EXP-1-vasp.mod
angle_style hybrid fourier cosine/periodic
angle_coeff 1 fourier 58.020602        0.343737        0.374972        0.281246
angle_coeff 2 fourier 83.380072        0.343737        0.374972        0.281246
angle_coeff 3 fourier 157.882480        0.343737        0.374972        0.281246
angle_coeff 4 fourier 221.735285        0.343737        0.374972        0.281246
angle_coeff 5 fourier 32.417871        0.343737        0.374972        0.281246
angle_coeff 6 fourier 114.246973        0.343737        0.374972        0.281246
angle_coeff 7 fourier 90.420412        0.343737        0.374972        0.281246
angle_coeff 8 fourier 75.498766        0.343737        0.374972        0.281246
angle_coeff 9 cosine/periodic 88.853997              -1               3

# Negative deformation

variable delta equal -${up}*${len0}
variable delta equal -0.02*${len0}
variable delta equal -0.02*15.0041667199516
variable deltaxy equal -${up}*xy
variable deltaxy equal -0.02*xy
variable deltaxz equal -${up}*xz
variable deltaxz equal -0.02*xz
variable deltayz equal -${up}*yz
variable deltayz equal -0.02*yz
if "${dir} == 1" then    "change_box all x delta 0 ${delta} xy delta ${deltaxy} xz delta ${deltaxz} remap units box"
change_box all x delta 0 ${delta} xy delta ${deltaxy} xz delta ${deltaxz} remap units box
change_box all x delta 0 -0.300083334399032 xy delta ${deltaxy} xz delta ${deltaxz} remap units box
change_box all x delta 0 -0.300083334399032 xy delta 0.125599910689622 xz delta ${deltaxz} remap units box
change_box all x delta 0 -0.300083334399032 xy delta 0.125599910689622 xz delta 0.0203775602169571 remap units box
Changing box ...
  triclinic box = (-0.12771686 -0.089724548 -0.11678381) to (14.576367 13.521555 16.726356) with tilt (-6.2799955 -1.018878 -1.8867226)
  triclinic box = (-0.12771686 -0.089724548 -0.11678381) to (14.576367 13.521555 16.726356) with tilt (-6.1543956 -1.018878 -1.8867226)
  triclinic box = (-0.12771686 -0.089724548 -0.11678381) to (14.576367 13.521555 16.726356) with tilt (-6.1543956 -0.99850045 -1.8867226)
if "${dir} == 2" then    "change_box all y delta 0 ${delta} yz delta ${deltayz} remap units box"
if "${dir} == 3" then    "change_box all z delta 0 ${delta} remap units box"
if "${dir} == 4" then    "change_box all yz delta ${delta} remap units box"
if "${dir} == 5" then    "change_box all xz delta ${delta} remap units box"
if "${dir} == 6" then    "change_box all xy delta ${delta} remap units box"

# Relax atoms positions

minimize ${etol} ${ftol} ${maxiter} ${maxeval}
minimize 0 ${ftol} ${maxiter} ${maxeval}
minimize 0 1e-10 ${maxiter} ${maxeval}
minimize 0 1e-10 100000 ${maxeval}
minimize 0 1e-10 100000 100000
Generated 6 of 6 mixed pair_coeff terms from arithmetic mixing rule
Neighbor list info ...
  update: every = 1 steps, delay = 0 steps, check = yes
  max neighbors/atom: 2000, page size: 100000
  master list distance cutoff = 7
  ghost atom cutoff = 7
  binsize = 3.5, bins = 7 5 5
  1 neighbor lists, perpetual/occasional/extra = 1 0 0
  (1) pair lj/cut, perpetual
      attributes: half, newton on
      pair build: half/bin/newton/tri
      stencil: half/bin/3d/tri
      bin: standard
WARNING: Inconsistent image flags
For more information see https://docs.lammps.org/err0027 (src/domain.cpp:1052)
Per MPI rank memory allocation (min/avg/max) = 17.48 | 17.48 | 17.48 Mbytes
   Step          Temp          E_pair         E_mol          TotEng         Press     
    250264   306.92185     -335.45613      281.0159       192.57621      24429.769    
    250296   306.92185     -355.80317      195.91379      87.127077      5956.7929    
Loop time of 0.0191203 on 1 procs for 32 steps with 271 atoms

100.0% CPU use with 1 MPI tasks x 1 OpenMP threads

Minimization stats:
  Stopping criterion = linesearch alpha is zero
  Energy initial, next-to-last, final = 
     -54.4402359789548  -159.889373050394  -159.889373050394
  Force two-norm initial, final = 186.51573 16.497198
  Force max component initial, final = 22.506795 2.8352828
  Final line search alpha, max atom move = 4.2155667e-11 1.1952324e-10
  Iterations, force evaluations = 32 119

MPI task timing breakdown:
Section |  min time  |  avg time  |  max time  |%varavg| %total
---------------------------------------------------------------
Pair    | 0.013805   | 0.013805   | 0.013805   |   0.0 | 72.20
Bond    | 0.0043704  | 0.0043704  | 0.0043704  |   0.0 | 22.86
Neigh   | 0          | 0          | 0          |   0.0 |  0.00
Comm    | 0.00054711 | 0.00054711 | 0.00054711 |   0.0 |  2.86
Output  | 0          | 0          | 0          |   0.0 |  0.00
Modify  | 0          | 0          | 0          |   0.0 |  0.00
Other   |            | 0.0003976  |            |       |  2.08

Nlocal:            271 ave         271 max         271 min
Histogram: 1 0 0 0 0 0 0 0 0 0
Nghost:           1781 ave        1781 max        1781 min
Histogram: 1 0 0 0 0 0 0 0 0 0
Neighs:          14665 ave       14665 max       14665 min
Histogram: 1 0 0 0 0 0 0 0 0 0

Total # of neighbors = 14665
Ave neighs/atom = 54.114391
Ave special neighs/atom = 6.2140221
Neighbor list builds = 0
Dangerous builds = 0

# Obtain new stress tensor

variable tmp equal pxx
variable pxx1 equal ${tmp}
variable pxx1 equal 7989.55083365517
variable tmp equal pyy
variable pyy1 equal ${tmp}
variable pyy1 equal 4607.90470124734
variable tmp equal pzz
variable pzz1 equal ${tmp}
variable pzz1 equal 5272.92304831696
variable tmp equal pxy
variable pxy1 equal ${tmp}
variable pxy1 equal 558.413779760608
variable tmp equal pxz
variable pxz1 equal ${tmp}
variable pxz1 equal -1065.13423968666
variable tmp equal pyz
variable pyz1 equal ${tmp}
variable pyz1 equal 10.1270466966855

# Compute elastic constant from pressure tensor

variable C1neg equal ${d1}
variable C1neg equal 22.8703574093398
variable C2neg equal ${d2}
variable C2neg equal 10.1448473266146
variable C3neg equal ${d3}
variable C3neg equal 11.2345351069856
variable C4neg equal ${d4}
variable C4neg equal -1.16365378469764
variable C5neg equal ${d5}
variable C5neg equal 5.26173777722235
variable C6neg equal ${d6}
variable C6neg equal 2.26501559957119

# Reset box and simulation parameters

clear
OMP_NUM_THREADS environment is not set. Defaulting to 1 thread.
  using 1 OpenMP thread(s) per MPI task
box tilt large

The 'box' command has been removed and will be ignored

read_restart restart_333-EXP-1-vasp.equil
Reading restart file ...
  restart file = 10 Sep 2025, LAMMPS = 10 Sep 2025
  restoring atom style full from restart
  triclinic box = (-0.12771686 -0.089724548 -0.11678381) to (14.87645 13.521555 16.726356) with tilt (-6.2799955 -1.018878 -1.8867226)
  1 by 1 by 1 MPI processor grid
  restoring pair style lj/cut from restart
  restoring bond style harmonic from restart
  restoring angle style hybrid from restart
  restoring dihedral style harmonic from restart
  271 atoms
  291 bonds
  551 angles
  687 dihedrals
Finding 1-2 1-3 1-4 neighbors ...
  special bond factors lj:    0        0        1       
  special bond factors coul:  0        0        1       
     4 = max # of 1-2 neighbors
     8 = max # of 1-3 neighbors
    12 = max # of special neighbors
  special bonds CPU = 0.000 seconds
  read_restart CPU = 0.002 seconds
include ./input/angles_333-EXP-1-vasp.mod
angle_style hybrid fourier cosine/periodic
angle_coeff 1 fourier 58.020602        0.343737        0.374972        0.281246
angle_coeff 2 fourier 83.380072        0.343737        0.374972        0.281246
angle_coeff 3 fourier 157.882480        0.343737        0.374972        0.281246
angle_coeff 4 fourier 221.735285        0.343737        0.374972        0.281246
angle_coeff 5 fourier 32.417871        0.343737        0.374972        0.281246
angle_coeff 6 fourier 114.246973        0.343737        0.374972        0.281246
angle_coeff 7 fourier 90.420412        0.343737        0.374972        0.281246
angle_coeff 8 fourier 75.498766        0.343737        0.374972        0.281246
angle_coeff 9 cosine/periodic 88.853997              -1               3

# Positive deformation

variable delta equal ${up}*${len0}
variable delta equal 0.02*${len0}
variable delta equal 0.02*15.0041667199516
variable deltaxy equal ${up}*xy
variable deltaxy equal 0.02*xy
variable deltaxz equal ${up}*xz
variable deltaxz equal 0.02*xz
variable deltayz equal ${up}*yz
variable deltayz equal 0.02*yz
if "${dir} == 1" then    "change_box all x delta 0 ${delta} xy delta ${deltaxy} xz delta ${deltaxz} remap units box"
change_box all x delta 0 ${delta} xy delta ${deltaxy} xz delta ${deltaxz} remap units box
change_box all x delta 0 0.300083334399032 xy delta ${deltaxy} xz delta ${deltaxz} remap units box
change_box all x delta 0 0.300083334399032 xy delta -0.125599910689622 xz delta ${deltaxz} remap units box
change_box all x delta 0 0.300083334399032 xy delta -0.125599910689622 xz delta -0.0203775602169571 remap units box
Changing box ...
  triclinic box = (-0.12771686 -0.089724548 -0.11678381) to (15.176533 13.521555 16.726356) with tilt (-6.2799955 -1.018878 -1.8867226)
  triclinic box = (-0.12771686 -0.089724548 -0.11678381) to (15.176533 13.521555 16.726356) with tilt (-6.4055954 -1.018878 -1.8867226)
  triclinic box = (-0.12771686 -0.089724548 -0.11678381) to (15.176533 13.521555 16.726356) with tilt (-6.4055954 -1.0392556 -1.8867226)
if "${dir} == 2" then    "change_box all y delta 0 ${delta} yz delta ${deltayz} remap units box"
if "${dir} == 3" then    "change_box all z delta 0 ${delta} remap units box"
if "${dir} == 4" then    "change_box all yz delta ${delta} remap units box"
if "${dir} == 5" then    "change_box all xz delta ${delta} remap units box"
if "${dir} == 6" then    "change_box all xy delta ${delta} remap units box"

# Relax atoms positions

minimize ${etol} ${ftol} ${maxiter} ${maxeval}
minimize 0 ${ftol} ${maxiter} ${maxeval}
minimize 0 1e-10 ${maxiter} ${maxeval}
minimize 0 1e-10 100000 ${maxeval}
minimize 0 1e-10 100000 100000
Generated 6 of 6 mixed pair_coeff terms from arithmetic mixing rule
Neighbor list info ...
  update: every = 1 steps, delay = 0 steps, check = yes
  max neighbors/atom: 2000, page size: 100000
  master list distance cutoff = 7
  ghost atom cutoff = 7
  binsize = 3.5, bins = 7 5 5
  1 neighbor lists, perpetual/occasional/extra = 1 0 0
  (1) pair lj/cut, perpetual
      attributes: half, newton on
      pair build: half/bin/newton/tri
      stencil: half/bin/3d/tri
      bin: standard
WARNING: Inconsistent image flags
For more information see https://docs.lammps.org/err0027 (src/domain.cpp:1052)
Per MPI rank memory allocation (min/avg/max) = 17.48 | 17.48 | 17.48 Mbytes
   Step          Temp          E_pair         E_mol          TotEng         Press     
    250264   306.92185     -348.04195      295.67485      194.64935     -17811.674    
    250301   306.92185     -359.57376      209.60953      97.052226     -2684.0565    
Loop time of 0.0204149 on 1 procs for 37 steps with 271 atoms

100.0% CPU use with 1 MPI tasks x 1 OpenMP threads

Minimization stats:
  Stopping criterion = linesearch alpha is zero
  Energy initial, next-to-last, final = 
     -52.3670982522797  -149.964224673611  -149.964224673611
  Force two-norm initial, final = 179.82109 13.870706
  Force max component initial, final = 24.260952 2.0764758
  Final line search alpha, max atom move = 4.7961179e-11 9.9590229e-11
  Iterations, force evaluations = 37 129

MPI task timing breakdown:
Section |  min time  |  avg time  |  max time  |%varavg| %total
---------------------------------------------------------------
Pair    | 0.014558   | 0.014558   | 0.014558   |   0.0 | 71.31
Bond    | 0.0048518  | 0.0048518  | 0.0048518  |   0.0 | 23.77
Neigh   | 0          | 0          | 0          |   0.0 |  0.00
Comm    | 0.00054485 | 0.00054485 | 0.00054485 |   0.0 |  2.67
Output  | 0          | 0          | 0          |   0.0 |  0.00
Modify  | 0          | 0          | 0          |   0.0 |  0.00
Other   |            | 0.0004604  |            |       |  2.26

Nlocal:            271 ave         271 max         271 min
Histogram: 1 0 0 0 0 0 0 0 0 0
Nghost:           1727 ave        1727 max        1727 min
Histogram: 1 0 0 0 0 0 0 0 0 0
Neighs:          14007 ave       14007 max       14007 min
Histogram: 1 0 0 0 0 0 0 0 0 0

Total # of neighbors = 14007
Ave neighs/atom = 51.686347
Ave special neighs/atom = 6.2140221
Neighbor list builds = 0
Dangerous builds = 0

# Obtain new stress tensor

variable tmp equal pe
variable e1 equal ${tmp}
variable e1 equal -149.964224673611
variable tmp equal press
variable p1 equal ${tmp}
variable p1 equal -2684.05649023095
variable tmp equal pxx
variable pxx1 equal ${tmp}
variable pxx1 equal -8571.23835469715
variable tmp equal pyy
variable pyy1 equal ${tmp}
variable pyy1 equal 649.492711077297
variable tmp equal pzz
variable pzz1 equal ${tmp}
variable pzz1 equal -130.423827072993
variable tmp equal pxy
variable pxy1 equal ${tmp}
variable pxy1 equal -61.6321401586078
variable tmp equal pxz
variable pxz1 equal ${tmp}
variable pxz1 equal -361.064349281828
variable tmp equal pyz
variable pyz1 equal ${tmp}
variable pyz1 equal 713.720815368076

# Compute elastic constant from pressure tensor

variable C1pos equal ${d1}
variable C1pos equal 59.9335885324218
variable C2pos equal ${d2}
variable C2pos equal 9.64721262423567
variable C3pos equal ${d3}
variable C3pos equal 15.7821992699642
variable C4pos equal ${d4}
variable C4pos equal -2.35431505865932
variable C5pos equal ${d5}
variable C5pos equal -8.78208722924651
variable C6pos equal ${d6}
variable C6pos equal 0.835214000024889

# Combine positive and negative

variable C1${dir} equal 0.5*(${C1neg}+${C1pos})
variable C11 equal 0.5*(${C1neg}+${C1pos})
variable C11 equal 0.5*(22.8703574093398+${C1pos})
variable C11 equal 0.5*(22.8703574093398+59.9335885324218)
variable C2${dir} equal 0.5*(${C2neg}+${C2pos})
variable C21 equal 0.5*(${C2neg}+${C2pos})
variable C21 equal 0.5*(10.1448473266146+${C2pos})
variable C21 equal 0.5*(10.1448473266146+9.64721262423567)
variable C3${dir} equal 0.5*(${C3neg}+${C3pos})
variable C31 equal 0.5*(${C3neg}+${C3pos})
variable C31 equal 0.5*(11.2345351069856+${C3pos})
variable C31 equal 0.5*(11.2345351069856+15.7821992699642)
variable C4${dir} equal 0.5*(${C4neg}+${C4pos})
variable C41 equal 0.5*(${C4neg}+${C4pos})
variable C41 equal 0.5*(-1.16365378469764+${C4pos})
variable C41 equal 0.5*(-1.16365378469764+-2.35431505865932)
variable C5${dir} equal 0.5*(${C5neg}+${C5pos})
variable C51 equal 0.5*(${C5neg}+${C5pos})
variable C51 equal 0.5*(5.26173777722235+${C5pos})
variable C51 equal 0.5*(5.26173777722235+-8.78208722924651)
variable C6${dir} equal 0.5*(${C6neg}+${C6pos})
variable C61 equal 0.5*(${C6neg}+${C6pos})
variable C61 equal 0.5*(2.26501559957119+${C6pos})
variable C61 equal 0.5*(2.26501559957119+0.835214000024889)

# Delete dir to make sure it is not reused

variable dir delete

# uyy Perturbation

variable dir equal 2
include ./input/displace_333-EXP-1-vasp.mod
if "${dir} == 1" then    "variable len0 equal ${lx0}"
if "${dir} == 2" then    "variable len0 equal ${ly0}"
variable len0 equal ${ly0}
variable len0 equal 13.6112790951766
if "${dir} == 3" then    "variable len0 equal ${lz0}"
if "${dir} == 4" then    "variable len0 equal ${lz0}"
if "${dir} == 5" then    "variable len0 equal ${lz0}"
if "${dir} == 6" then    "variable len0 equal ${ly0}"

# Reset box and simulation parameters

clear
OMP_NUM_THREADS environment is not set. Defaulting to 1 thread.
  using 1 OpenMP thread(s) per MPI task
box tilt large

The 'box' command has been removed and will be ignored

read_restart restart_333-EXP-1-vasp.equil
Reading restart file ...
  restart file = 10 Sep 2025, LAMMPS = 10 Sep 2025
  restoring atom style full from restart
  triclinic box = (-0.12771686 -0.089724548 -0.11678381) to (14.87645 13.521555 16.726356) with tilt (-6.2799955 -1.018878 -1.8867226)
  1 by 1 by 1 MPI processor grid
  restoring pair style lj/cut from restart
  restoring bond style harmonic from restart
  restoring angle style hybrid from restart
  restoring dihedral style harmonic from restart
  271 atoms
  291 bonds
  551 angles
  687 dihedrals
Finding 1-2 1-3 1-4 neighbors ...
  special bond factors lj:    0        0        1       
  special bond factors coul:  0        0        1       
     4 = max # of 1-2 neighbors
     8 = max # of 1-3 neighbors
    12 = max # of special neighbors
  special bonds CPU = 0.000 seconds
  read_restart CPU = 0.001 seconds
include ./input/angles_333-EXP-1-vasp.mod
angle_style hybrid fourier cosine/periodic
angle_coeff 1 fourier 58.020602        0.343737        0.374972        0.281246
angle_coeff 2 fourier 83.380072        0.343737        0.374972        0.281246
angle_coeff 3 fourier 157.882480        0.343737        0.374972        0.281246
angle_coeff 4 fourier 221.735285        0.343737        0.374972        0.281246
angle_coeff 5 fourier 32.417871        0.343737        0.374972        0.281246
angle_coeff 6 fourier 114.246973        0.343737        0.374972        0.281246
angle_coeff 7 fourier 90.420412        0.343737        0.374972        0.281246
angle_coeff 8 fourier 75.498766        0.343737        0.374972        0.281246
angle_coeff 9 cosine/periodic 88.853997              -1               3

# Negative deformation

variable delta equal -${up}*${len0}
variable delta equal -0.02*${len0}
variable delta equal -0.02*13.6112790951766
variable deltaxy equal -${up}*xy
variable deltaxy equal -0.02*xy
variable deltaxz equal -${up}*xz
variable deltaxz equal -0.02*xz
variable deltayz equal -${up}*yz
variable deltayz equal -0.02*yz
if "${dir} == 1" then    "change_box all x delta 0 ${delta} xy delta ${deltaxy} xz delta ${deltaxz} remap units box"
if "${dir} == 2" then    "change_box all y delta 0 ${delta} yz delta ${deltayz} remap units box"
change_box all y delta 0 ${delta} yz delta ${deltayz} remap units box
change_box all y delta 0 -0.272225581903532 yz delta ${deltayz} remap units box
change_box all y delta 0 -0.272225581903532 yz delta 0.037734452146458 remap units box
Changing box ...
  triclinic box = (-0.12771686 -0.089724548 -0.11678381) to (14.87645 13.249329 16.726356) with tilt (-6.2799955 -1.018878 -1.8867226)
  triclinic box = (-0.12771686 -0.089724548 -0.11678381) to (14.87645 13.249329 16.726356) with tilt (-6.2799955 -1.018878 -1.8489882)
if "${dir} == 3" then    "change_box all z delta 0 ${delta} remap units box"
if "${dir} == 4" then    "change_box all yz delta ${delta} remap units box"
if "${dir} == 5" then    "change_box all xz delta ${delta} remap units box"
if "${dir} == 6" then    "change_box all xy delta ${delta} remap units box"

# Relax atoms positions

minimize ${etol} ${ftol} ${maxiter} ${maxeval}
minimize 0 ${ftol} ${maxiter} ${maxeval}
minimize 0 1e-10 ${maxiter} ${maxeval}
minimize 0 1e-10 100000 ${maxeval}
minimize 0 1e-10 100000 100000
Generated 6 of 6 mixed pair_coeff terms from arithmetic mixing rule
Neighbor list info ...
  update: every = 1 steps, delay = 0 steps, check = yes
  max neighbors/atom: 2000, page size: 100000
  master list distance cutoff = 7
  ghost atom cutoff = 7
  binsize = 3.5, bins = 7 5 5
  1 neighbor lists, perpetual/occasional/extra = 1 0 0
  (1) pair lj/cut, perpetual
      attributes: half, newton on
      pair build: half/bin/newton/tri
      stencil: half/bin/3d/tri
      bin: standard
WARNING: Inconsistent image flags
For more information see https://docs.lammps.org/err0027 (src/domain.cpp:1052)
Per MPI rank memory allocation (min/avg/max) = 17.48 | 17.48 | 17.48 Mbytes
   Step          Temp          E_pair         E_mol          TotEng         Press     
    250264   306.92185     -335.6147       282.68194      194.08369      25239.665    
    250295   306.92185     -355.76138      200.53141      91.786483      5608.6612    
Loop time of 0.0193761 on 1 procs for 31 steps with 271 atoms

100.0% CPU use with 1 MPI tasks x 1 OpenMP threads

Minimization stats:
  Stopping criterion = linesearch alpha is zero
  Energy initial, next-to-last, final = 
     -52.9327605858905  -155.229967906009  -155.229967906009
  Force two-norm initial, final = 189.02139 16.073569
  Force max component initial, final = 22.558509 2.2897528
  Final line search alpha, max atom move = 3.1030329e-11 7.1051781e-11
  Iterations, force evaluations = 31 118

MPI task timing breakdown:
Section |  min time  |  avg time  |  max time  |%varavg| %total
---------------------------------------------------------------
Pair    | 0.014025   | 0.014025   | 0.014025   |   0.0 | 72.38
Bond    | 0.0044194  | 0.0044194  | 0.0044194  |   0.0 | 22.81
Neigh   | 0          | 0          | 0          |   0.0 |  0.00
Comm    | 0.00052241 | 0.00052241 | 0.00052241 |   0.0 |  2.70
Output  | 0          | 0          | 0          |   0.0 |  0.00
Modify  | 0          | 0          | 0          |   0.0 |  0.00
Other   |            | 0.0004092  |            |       |  2.11

Nlocal:            271 ave         271 max         271 min
Histogram: 1 0 0 0 0 0 0 0 0 0
Nghost:           1781 ave        1781 max        1781 min
Histogram: 1 0 0 0 0 0 0 0 0 0
Neighs:          14660 ave       14660 max       14660 min
Histogram: 1 0 0 0 0 0 0 0 0 0

Total # of neighbors = 14660
Ave neighs/atom = 54.095941
Ave special neighs/atom = 6.2140221
Neighbor list builds = 0
Dangerous builds = 0

# Obtain new stress tensor

variable tmp equal pxx
variable pxx1 equal ${tmp}
variable pxx1 equal 1436.34492337704
variable tmp equal pyy
variable pyy1 equal ${tmp}
variable pyy1 equal 10045.0436101191
variable tmp equal pzz
variable pzz1 equal ${tmp}
variable pzz1 equal 5344.59512674582
variable tmp equal pxy
variable pxy1 equal ${tmp}
variable pxy1 equal -638.337530830022
variable tmp equal pxz
variable pxz1 equal ${tmp}
variable pxz1 equal -848.513161490976
variable tmp equal pyz
variable pyz1 equal ${tmp}
variable pyz1 equal 750.469592442985

# Compute elastic constant from pressure tensor

variable C1neg equal ${d1}
variable C1neg equal -9.89567214205085
variable C2neg equal ${d2}
variable C2neg equal 37.3305418709734
variable C3neg equal ${d3}
variable C3neg equal 11.5928954991299
variable C4neg equal ${d4}
variable C4neg equal 2.53805894403386
variable C5neg equal ${d5}
variable C5neg equal 6.34484316820077
variable C6neg equal ${d6}
variable C6neg equal -3.71874095338196

# Reset box and simulation parameters

clear
OMP_NUM_THREADS environment is not set. Defaulting to 1 thread.
  using 1 OpenMP thread(s) per MPI task
box tilt large

The 'box' command has been removed and will be ignored

read_restart restart_333-EXP-1-vasp.equil
Reading restart file ...
  restart file = 10 Sep 2025, LAMMPS = 10 Sep 2025
  restoring atom style full from restart
  triclinic box = (-0.12771686 -0.089724548 -0.11678381) to (14.87645 13.521555 16.726356) with tilt (-6.2799955 -1.018878 -1.8867226)
  1 by 1 by 1 MPI processor grid
  restoring pair style lj/cut from restart
  restoring bond style harmonic from restart
  restoring angle style hybrid from restart
  restoring dihedral style harmonic from restart
  271 atoms
  291 bonds
  551 angles
  687 dihedrals
Finding 1-2 1-3 1-4 neighbors ...
  special bond factors lj:    0        0        1       
  special bond factors coul:  0        0        1       
     4 = max # of 1-2 neighbors
     8 = max # of 1-3 neighbors
    12 = max # of special neighbors
  special bonds CPU = 0.000 seconds
  read_restart CPU = 0.001 seconds
include ./input/angles_333-EXP-1-vasp.mod
angle_style hybrid fourier cosine/periodic
angle_coeff 1 fourier 58.020602        0.343737        0.374972        0.281246
angle_coeff 2 fourier 83.380072        0.343737        0.374972        0.281246
angle_coeff 3 fourier 157.882480        0.343737        0.374972        0.281246
angle_coeff 4 fourier 221.735285        0.343737        0.374972        0.281246
angle_coeff 5 fourier 32.417871        0.343737        0.374972        0.281246
angle_coeff 6 fourier 114.246973        0.343737        0.374972        0.281246
angle_coeff 7 fourier 90.420412        0.343737        0.374972        0.281246
angle_coeff 8 fourier 75.498766        0.343737        0.374972        0.281246
angle_coeff 9 cosine/periodic 88.853997              -1               3

# Positive deformation

variable delta equal ${up}*${len0}
variable delta equal 0.02*${len0}
variable delta equal 0.02*13.6112790951766
variable deltaxy equal ${up}*xy
variable deltaxy equal 0.02*xy
variable deltaxz equal ${up}*xz
variable deltaxz equal 0.02*xz
variable deltayz equal ${up}*yz
variable deltayz equal 0.02*yz
if "${dir} == 1" then    "change_box all x delta 0 ${delta} xy delta ${deltaxy} xz delta ${deltaxz} remap units box"
if "${dir} == 2" then    "change_box all y delta 0 ${delta} yz delta ${deltayz} remap units box"
change_box all y delta 0 ${delta} yz delta ${deltayz} remap units box
change_box all y delta 0 0.272225581903532 yz delta ${deltayz} remap units box
change_box all y delta 0 0.272225581903532 yz delta -0.037734452146458 remap units box
Changing box ...
  triclinic box = (-0.12771686 -0.089724548 -0.11678381) to (14.87645 13.79378 16.726356) with tilt (-6.2799955 -1.018878 -1.8867226)
  triclinic box = (-0.12771686 -0.089724548 -0.11678381) to (14.87645 13.79378 16.726356) with tilt (-6.2799955 -1.018878 -1.9244571)
if "${dir} == 3" then    "change_box all z delta 0 ${delta} remap units box"
if "${dir} == 4" then    "change_box all yz delta ${delta} remap units box"
if "${dir} == 5" then    "change_box all xz delta ${delta} remap units box"
if "${dir} == 6" then    "change_box all xy delta ${delta} remap units box"

# Relax atoms positions

minimize ${etol} ${ftol} ${maxiter} ${maxeval}
minimize 0 ${ftol} ${maxiter} ${maxeval}
minimize 0 1e-10 ${maxiter} ${maxeval}
minimize 0 1e-10 100000 ${maxeval}
minimize 0 1e-10 100000 100000
Generated 6 of 6 mixed pair_coeff terms from arithmetic mixing rule
Neighbor list info ...
  update: every = 1 steps, delay = 0 steps, check = yes
  max neighbors/atom: 2000, page size: 100000
  master list distance cutoff = 7
  ghost atom cutoff = 7
  binsize = 3.5, bins = 7 5 5
  1 neighbor lists, perpetual/occasional/extra = 1 0 0
  (1) pair lj/cut, perpetual
      attributes: half, newton on
      pair build: half/bin/newton/tri
      stencil: half/bin/3d/tri
      bin: standard
WARNING: Inconsistent image flags
For more information see https://docs.lammps.org/err0027 (src/domain.cpp:1052)
Per MPI rank memory allocation (min/avg/max) = 17.47 | 17.47 | 17.47 Mbytes
   Step          Temp          E_pair         E_mol          TotEng         Press     
    250264   306.92185     -348.5142       296.66445      195.1667      -18649.271    
    250307   306.92185     -358.47281      202.76282      91.306463     -2026.2887    
Loop time of 0.0225911 on 1 procs for 43 steps with 271 atoms

100.0% CPU use with 1 MPI tasks x 1 OpenMP threads

Minimization stats:
  Stopping criterion = linesearch alpha is zero
  Energy initial, next-to-last, final = 
     -51.8497543631376  -155.709987839278  -155.709987839278
  Force two-norm initial, final = 184.06662 11.205412
  Force max component initial, final = 23.857201 1.6440711
  Final line search alpha, max atom move = 5.7377675e-11 9.4332978e-11
  Iterations, force evaluations = 43 141

MPI task timing breakdown:
Section |  min time  |  avg time  |  max time  |%varavg| %total
---------------------------------------------------------------
Pair    | 0.015995   | 0.015995   | 0.015995   |   0.0 | 70.80
Bond    | 0.005428   | 0.005428   | 0.005428   |   0.0 | 24.03
Neigh   | 0          | 0          | 0          |   0.0 |  0.00
Comm    | 0.00064909 | 0.00064909 | 0.00064909 |   0.0 |  2.87
Output  | 0          | 0          | 0          |   0.0 |  0.00
Modify  | 0          | 0          | 0          |   0.0 |  0.00
Other   |            | 0.0005195  |            |       |  2.30

Nlocal:            271 ave         271 max         271 min
Histogram: 1 0 0 0 0 0 0 0 0 0
Nghost:           1717 ave        1717 max        1717 min
Histogram: 1 0 0 0 0 0 0 0 0 0
Neighs:          14009 ave       14009 max       14009 min
Histogram: 1 0 0 0 0 0 0 0 0 0

Total # of neighbors = 14009
Ave neighs/atom = 51.693727
Ave special neighs/atom = 6.2140221
Neighbor list builds = 0
Dangerous builds = 0

# Obtain new stress tensor

variable tmp equal pe
variable e1 equal ${tmp}
variable e1 equal -155.709987839278
variable tmp equal press
variable p1 equal ${tmp}
variable p1 equal -2026.28870291324
variable tmp equal pxx
variable pxx1 equal ${tmp}
variable pxx1 equal -2988.50924608145
variable tmp equal pyy
variable pyy1 equal ${tmp}
variable pyy1 equal -3203.68662062987
variable tmp equal pzz
variable pzz1 equal ${tmp}
variable pzz1 equal 113.329757971602
variable tmp equal pxy
variable pxy1 equal ${tmp}
variable pxy1 equal 1099.06849524199
variable tmp equal pxz
variable pxz1 equal ${tmp}
variable pxz1 equal -479.023608512224
variable tmp equal pyz
variable pyz1 equal ${tmp}
variable pyz1 equal -124.835497623331

# Compute elastic constant from pressure tensor

variable C1pos equal ${d1}
variable C1pos equal 32.0199429893433
variable C2pos equal ${d2}
variable C2pos equal 28.9131092827715
variable C3pos equal ${d3}
variable C3pos equal 14.5634313447412
variable C4pos equal ${d4}
variable C4pos equal 1.83846650629772
variable C5pos equal ${d5}
variable C5pos equal -8.19229093309453
variable C6pos equal ${d6}
variable C6pos equal -4.9682891769781

# Combine positive and negative

variable C1${dir} equal 0.5*(${C1neg}+${C1pos})
variable C12 equal 0.5*(${C1neg}+${C1pos})
variable C12 equal 0.5*(-9.89567214205085+${C1pos})
variable C12 equal 0.5*(-9.89567214205085+32.0199429893433)
variable C2${dir} equal 0.5*(${C2neg}+${C2pos})
variable C22 equal 0.5*(${C2neg}+${C2pos})
variable C22 equal 0.5*(37.3305418709734+${C2pos})
variable C22 equal 0.5*(37.3305418709734+28.9131092827715)
variable C3${dir} equal 0.5*(${C3neg}+${C3pos})
variable C32 equal 0.5*(${C3neg}+${C3pos})
variable C32 equal 0.5*(11.5928954991299+${C3pos})
variable C32 equal 0.5*(11.5928954991299+14.5634313447412)
variable C4${dir} equal 0.5*(${C4neg}+${C4pos})
variable C42 equal 0.5*(${C4neg}+${C4pos})
variable C42 equal 0.5*(2.53805894403386+${C4pos})
variable C42 equal 0.5*(2.53805894403386+1.83846650629772)
variable C5${dir} equal 0.5*(${C5neg}+${C5pos})
variable C52 equal 0.5*(${C5neg}+${C5pos})
variable C52 equal 0.5*(6.34484316820077+${C5pos})
variable C52 equal 0.5*(6.34484316820077+-8.19229093309453)
variable C6${dir} equal 0.5*(${C6neg}+${C6pos})
variable C62 equal 0.5*(${C6neg}+${C6pos})
variable C62 equal 0.5*(-3.71874095338196+${C6pos})
variable C62 equal 0.5*(-3.71874095338196+-4.9682891769781)

# Delete dir to make sure it is not reused

variable dir delete

# uzz Perturbation

variable dir equal 3
include ./input/displace_333-EXP-1-vasp.mod
if "${dir} == 1" then    "variable len0 equal ${lx0}"
if "${dir} == 2" then    "variable len0 equal ${ly0}"
if "${dir} == 3" then    "variable len0 equal ${lz0}"
variable len0 equal ${lz0}
variable len0 equal 16.8431396103833
if "${dir} == 4" then    "variable len0 equal ${lz0}"
if "${dir} == 5" then    "variable len0 equal ${lz0}"
if "${dir} == 6" then    "variable len0 equal ${ly0}"

# Reset box and simulation parameters

clear
OMP_NUM_THREADS environment is not set. Defaulting to 1 thread.
  using 1 OpenMP thread(s) per MPI task
box tilt large

The 'box' command has been removed and will be ignored

read_restart restart_333-EXP-1-vasp.equil
Reading restart file ...
  restart file = 10 Sep 2025, LAMMPS = 10 Sep 2025
  restoring atom style full from restart
  triclinic box = (-0.12771686 -0.089724548 -0.11678381) to (14.87645 13.521555 16.726356) with tilt (-6.2799955 -1.018878 -1.8867226)
  1 by 1 by 1 MPI processor grid
  restoring pair style lj/cut from restart
  restoring bond style harmonic from restart
  restoring angle style hybrid from restart
  restoring dihedral style harmonic from restart
  271 atoms
  291 bonds
  551 angles
  687 dihedrals
Finding 1-2 1-3 1-4 neighbors ...
  special bond factors lj:    0        0        1       
  special bond factors coul:  0        0        1       
     4 = max # of 1-2 neighbors
     8 = max # of 1-3 neighbors
    12 = max # of special neighbors
  special bonds CPU = 0.000 seconds
  read_restart CPU = 0.001 seconds
include ./input/angles_333-EXP-1-vasp.mod
angle_style hybrid fourier cosine/periodic
angle_coeff 1 fourier 58.020602        0.343737        0.374972        0.281246
angle_coeff 2 fourier 83.380072        0.343737        0.374972        0.281246
angle_coeff 3 fourier 157.882480        0.343737        0.374972        0.281246
angle_coeff 4 fourier 221.735285        0.343737        0.374972        0.281246
angle_coeff 5 fourier 32.417871        0.343737        0.374972        0.281246
angle_coeff 6 fourier 114.246973        0.343737        0.374972        0.281246
angle_coeff 7 fourier 90.420412        0.343737        0.374972        0.281246
angle_coeff 8 fourier 75.498766        0.343737        0.374972        0.281246
angle_coeff 9 cosine/periodic 88.853997              -1               3

# Negative deformation

variable delta equal -${up}*${len0}
variable delta equal -0.02*${len0}
variable delta equal -0.02*16.8431396103833
variable deltaxy equal -${up}*xy
variable deltaxy equal -0.02*xy
variable deltaxz equal -${up}*xz
variable deltaxz equal -0.02*xz
variable deltayz equal -${up}*yz
variable deltayz equal -0.02*yz
if "${dir} == 1" then    "change_box all x delta 0 ${delta} xy delta ${deltaxy} xz delta ${deltaxz} remap units box"
if "${dir} == 2" then    "change_box all y delta 0 ${delta} yz delta ${deltayz} remap units box"
if "${dir} == 3" then    "change_box all z delta 0 ${delta} remap units box"
change_box all z delta 0 ${delta} remap units box
change_box all z delta 0 -0.336862792207666 remap units box
Changing box ...
  triclinic box = (-0.12771686 -0.089724548 -0.11678381) to (14.87645 13.521555 16.389493) with tilt (-6.2799955 -1.018878 -1.8867226)
if "${dir} == 4" then    "change_box all yz delta ${delta} remap units box"
if "${dir} == 5" then    "change_box all xz delta ${delta} remap units box"
if "${dir} == 6" then    "change_box all xy delta ${delta} remap units box"

# Relax atoms positions

minimize ${etol} ${ftol} ${maxiter} ${maxeval}
minimize 0 ${ftol} ${maxiter} ${maxeval}
minimize 0 1e-10 ${maxiter} ${maxeval}
minimize 0 1e-10 100000 ${maxeval}
minimize 0 1e-10 100000 100000
Generated 6 of 6 mixed pair_coeff terms from arithmetic mixing rule
Neighbor list info ...
  update: every = 1 steps, delay = 0 steps, check = yes
  max neighbors/atom: 2000, page size: 100000
  master list distance cutoff = 7
  ghost atom cutoff = 7
  binsize = 3.5, bins = 7 5 5
  1 neighbor lists, perpetual/occasional/extra = 1 0 0
  (1) pair lj/cut, perpetual
      attributes: half, newton on
      pair build: half/bin/newton/tri
      stencil: half/bin/3d/tri
      bin: standard
WARNING: Inconsistent image flags
For more information see https://docs.lammps.org/err0027 (src/domain.cpp:1052)
Per MPI rank memory allocation (min/avg/max) = 17.48 | 17.48 | 17.48 Mbytes
   Step          Temp          E_pair         E_mol          TotEng         Press     
    250264   306.92185     -333.77974      280.29731      193.53403      25089.3      
    250292   306.92185     -355.2394       200.43237      92.209416      5957.8514    
Loop time of 0.0183142 on 1 procs for 28 steps with 271 atoms

100.0% CPU use with 1 MPI tasks x 1 OpenMP threads

Minimization stats:
  Stopping criterion = linesearch alpha is zero
  Energy initial, next-to-last, final = 
     -53.4824243142998  -154.807034676952  -154.807034676952
  Force two-norm initial, final = 179.78617 20.835999
  Force max component initial, final = 25.667707 2.5606441
  Final line search alpha, max atom move = 1.9077216e-11 4.8849959e-11
  Iterations, force evaluations = 28 113

MPI task timing breakdown:
Section |  min time  |  avg time  |  max time  |%varavg| %total
---------------------------------------------------------------
Pair    | 0.013209   | 0.013209   | 0.013209   |   0.0 | 72.13
Bond    | 0.0041937  | 0.0041937  | 0.0041937  |   0.0 | 22.90
Neigh   | 0          | 0          | 0          |   0.0 |  0.00
Comm    | 0.00053842 | 0.00053842 | 0.00053842 |   0.0 |  2.94
Output  | 0          | 0          | 0          |   0.0 |  0.00
Modify  | 0          | 0          | 0          |   0.0 |  0.00
Other   |            | 0.0003728  |            |       |  2.04

Nlocal:            271 ave         271 max         271 min
Histogram: 1 0 0 0 0 0 0 0 0 0
Nghost:           1777 ave        1777 max        1777 min
Histogram: 1 0 0 0 0 0 0 0 0 0
Neighs:          14646 ave       14646 max       14646 min
Histogram: 1 0 0 0 0 0 0 0 0 0

Total # of neighbors = 14646
Ave neighs/atom = 54.04428
Ave special neighs/atom = 6.2140221
Neighbor list builds = 0
Dangerous builds = 0

# Obtain new stress tensor

variable tmp equal pxx
variable pxx1 equal ${tmp}
variable pxx1 equal 2084.70793194486
variable tmp equal pyy
variable pyy1 equal ${tmp}
variable pyy1 equal 5293.9437163718
variable tmp equal pzz
variable pzz1 equal ${tmp}
variable pzz1 equal 10494.9025364349
variable tmp equal pxy
variable pxy1 equal ${tmp}
variable pxy1 equal -299.712922109508
variable tmp equal pxz
variable pxz1 equal ${tmp}
variable pxz1 equal -245.566920360404
variable tmp equal pyz
variable pyz1 equal ${tmp}
variable pyz1 equal 1249.40797247396

# Compute elastic constant from pressure tensor

variable C1neg equal ${d1}
variable C1neg equal -6.65385709921175
variable C2neg equal ${d2}
variable C2neg equal 13.5750424022369
variable C3neg equal ${d3}
variable C3neg equal 37.3444325475753
variable C4neg equal ${d4}
variable C4neg equal 5.03275084418873
variable C5neg equal ${d5}
variable C5neg equal 9.35957437385363
variable C6neg equal ${d6}
variable C6neg equal -2.02561790977939

# Reset box and simulation parameters

clear
OMP_NUM_THREADS environment is not set. Defaulting to 1 thread.
  using 1 OpenMP thread(s) per MPI task
box tilt large

The 'box' command has been removed and will be ignored

read_restart restart_333-EXP-1-vasp.equil
Reading restart file ...
  restart file = 10 Sep 2025, LAMMPS = 10 Sep 2025
  restoring atom style full from restart
  triclinic box = (-0.12771686 -0.089724548 -0.11678381) to (14.87645 13.521555 16.726356) with tilt (-6.2799955 -1.018878 -1.8867226)
  1 by 1 by 1 MPI processor grid
  restoring pair style lj/cut from restart
  restoring bond style harmonic from restart
  restoring angle style hybrid from restart
  restoring dihedral style harmonic from restart
  271 atoms
  291 bonds
  551 angles
  687 dihedrals
Finding 1-2 1-3 1-4 neighbors ...
  special bond factors lj:    0        0        1       
  special bond factors coul:  0        0        1       
     4 = max # of 1-2 neighbors
     8 = max # of 1-3 neighbors
    12 = max # of special neighbors
  special bonds CPU = 0.000 seconds
  read_restart CPU = 0.001 seconds
include ./input/angles_333-EXP-1-vasp.mod
angle_style hybrid fourier cosine/periodic
angle_coeff 1 fourier 58.020602        0.343737        0.374972        0.281246
angle_coeff 2 fourier 83.380072        0.343737        0.374972        0.281246
angle_coeff 3 fourier 157.882480        0.343737        0.374972        0.281246
angle_coeff 4 fourier 221.735285        0.343737        0.374972        0.281246
angle_coeff 5 fourier 32.417871        0.343737        0.374972        0.281246
angle_coeff 6 fourier 114.246973        0.343737        0.374972        0.281246
angle_coeff 7 fourier 90.420412        0.343737        0.374972        0.281246
angle_coeff 8 fourier 75.498766        0.343737        0.374972        0.281246
angle_coeff 9 cosine/periodic 88.853997              -1               3

# Positive deformation

variable delta equal ${up}*${len0}
variable delta equal 0.02*${len0}
variable delta equal 0.02*16.8431396103833
variable deltaxy equal ${up}*xy
variable deltaxy equal 0.02*xy
variable deltaxz equal ${up}*xz
variable deltaxz equal 0.02*xz
variable deltayz equal ${up}*yz
variable deltayz equal 0.02*yz
if "${dir} == 1" then    "change_box all x delta 0 ${delta} xy delta ${deltaxy} xz delta ${deltaxz} remap units box"
if "${dir} == 2" then    "change_box all y delta 0 ${delta} yz delta ${deltayz} remap units box"
if "${dir} == 3" then    "change_box all z delta 0 ${delta} remap units box"
change_box all z delta 0 ${delta} remap units box
change_box all z delta 0 0.336862792207666 remap units box
Changing box ...
  triclinic box = (-0.12771686 -0.089724548 -0.11678381) to (14.87645 13.521555 17.063219) with tilt (-6.2799955 -1.018878 -1.8867226)
if "${dir} == 4" then    "change_box all yz delta ${delta} remap units box"
if "${dir} == 5" then    "change_box all xz delta ${delta} remap units box"
if "${dir} == 6" then    "change_box all xy delta ${delta} remap units box"

# Relax atoms positions

minimize ${etol} ${ftol} ${maxiter} ${maxeval}
minimize 0 ${ftol} ${maxiter} ${maxeval}
minimize 0 1e-10 ${maxiter} ${maxeval}
minimize 0 1e-10 100000 ${maxeval}
minimize 0 1e-10 100000 100000
Generated 6 of 6 mixed pair_coeff terms from arithmetic mixing rule
Neighbor list info ...
  update: every = 1 steps, delay = 0 steps, check = yes
  max neighbors/atom: 2000, page size: 100000
  master list distance cutoff = 7
  ghost atom cutoff = 7
  binsize = 3.5, bins = 7 5 5
  1 neighbor lists, perpetual/occasional/extra = 1 0 0
  (1) pair lj/cut, perpetual
      attributes: half, newton on
      pair build: half/bin/newton/tri
      stencil: half/bin/3d/tri
      bin: standard
WARNING: Inconsistent image flags
For more information see https://docs.lammps.org/err0027 (src/domain.cpp:1052)
Per MPI rank memory allocation (min/avg/max) = 17.48 | 17.48 | 17.48 Mbytes
   Step          Temp          E_pair         E_mol          TotEng         Press     
    250264   306.92185     -349.73087      296.52959      193.81517     -18455.649    
    250307   306.92185     -361.25994      204.35686      90.113375     -2598.3082    
Loop time of 0.0219256 on 1 procs for 43 steps with 271 atoms

100.0% CPU use with 1 MPI tasks x 1 OpenMP threads

Minimization stats:
  Stopping criterion = linesearch alpha is zero
  Energy initial, next-to-last, final = 
     -53.2012832665647  -156.903075654219  -156.903075654219
  Force two-norm initial, final = 178.76057 11.426599
  Force max component initial, final = 23.46565 1.8493405
  Final line search alpha, max atom move = 6.7094194e-11 1.2408001e-10
  Iterations, force evaluations = 43 141

MPI task timing breakdown:
Section |  min time  |  avg time  |  max time  |%varavg| %total
---------------------------------------------------------------
Pair    | 0.015691   | 0.015691   | 0.015691   |   0.0 | 71.57
Bond    | 0.0051631  | 0.0051631  | 0.0051631  |   0.0 | 23.55
Neigh   | 0          | 0          | 0          |   0.0 |  0.00
Comm    | 0.00059681 | 0.00059681 | 0.00059681 |   0.0 |  2.72
Output  | 0          | 0          | 0          |   0.0 |  0.00
Modify  | 0          | 0          | 0          |   0.0 |  0.00
Other   |            | 0.0004744  |            |       |  2.16

Nlocal:            271 ave         271 max         271 min
Histogram: 1 0 0 0 0 0 0 0 0 0
Nghost:           1733 ave        1733 max        1733 min
Histogram: 1 0 0 0 0 0 0 0 0 0
Neighs:          14022 ave       14022 max       14022 min
Histogram: 1 0 0 0 0 0 0 0 0 0

Total # of neighbors = 14022
Ave neighs/atom = 51.741697
Ave special neighs/atom = 6.2140221
Neighbor list builds = 0
Dangerous builds = 0

# Obtain new stress tensor

variable tmp equal pe
variable e1 equal ${tmp}
variable e1 equal -156.903075654219
variable tmp equal press
variable p1 equal ${tmp}
variable p1 equal -2598.30819093358
variable tmp equal pxx
variable pxx1 equal ${tmp}
variable pxx1 equal -3577.07032685013
variable tmp equal pyy
variable pyy1 equal ${tmp}
variable pyy1 equal 492.761354470934
variable tmp equal pzz
variable pzz1 equal ${tmp}
variable pzz1 equal -4710.61560042153
variable tmp equal pxy
variable pxy1 equal ${tmp}
variable pxy1 equal 451.776959517627
variable tmp equal pxz
variable pxz1 equal ${tmp}
variable pxz1 equal -961.054282977316
variable tmp equal pyz
variable pyz1 equal ${tmp}
variable pyz1 equal -260.466479327082

# Compute elastic constant from pressure tensor

variable C1pos equal ${d1}
variable C1pos equal 34.9627483931867
variable C2pos equal ${d2}
variable C2pos equal 10.4308694072675
variable C3pos equal ${d3}
variable C3pos equal 38.6831581367069
variable C4pos equal ${d4}
variable C4pos equal 2.51662141481648
variable C5pos equal ${d5}
variable C5pos equal -5.78213756076907
variable C6pos equal ${d6}
variable C6pos equal -1.73183149835629

# Combine positive and negative

variable C1${dir} equal 0.5*(${C1neg}+${C1pos})
variable C13 equal 0.5*(${C1neg}+${C1pos})
variable C13 equal 0.5*(-6.65385709921175+${C1pos})
variable C13 equal 0.5*(-6.65385709921175+34.9627483931867)
variable C2${dir} equal 0.5*(${C2neg}+${C2pos})
variable C23 equal 0.5*(${C2neg}+${C2pos})
variable C23 equal 0.5*(13.5750424022369+${C2pos})
variable C23 equal 0.5*(13.5750424022369+10.4308694072675)
variable C3${dir} equal 0.5*(${C3neg}+${C3pos})
variable C33 equal 0.5*(${C3neg}+${C3pos})
variable C33 equal 0.5*(37.3444325475753+${C3pos})
variable C33 equal 0.5*(37.3444325475753+38.6831581367069)
variable C4${dir} equal 0.5*(${C4neg}+${C4pos})
variable C43 equal 0.5*(${C4neg}+${C4pos})
variable C43 equal 0.5*(5.03275084418873+${C4pos})
variable C43 equal 0.5*(5.03275084418873+2.51662141481648)
variable C5${dir} equal 0.5*(${C5neg}+${C5pos})
variable C53 equal 0.5*(${C5neg}+${C5pos})
variable C53 equal 0.5*(9.35957437385363+${C5pos})
variable C53 equal 0.5*(9.35957437385363+-5.78213756076907)
variable C6${dir} equal 0.5*(${C6neg}+${C6pos})
variable C63 equal 0.5*(${C6neg}+${C6pos})
variable C63 equal 0.5*(-2.02561790977939+${C6pos})
variable C63 equal 0.5*(-2.02561790977939+-1.73183149835629)

# Delete dir to make sure it is not reused

variable dir delete

# uyz Perturbation

variable dir equal 4
include ./input/displace_333-EXP-1-vasp.mod
if "${dir} == 1" then    "variable len0 equal ${lx0}"
if "${dir} == 2" then    "variable len0 equal ${ly0}"
if "${dir} == 3" then    "variable len0 equal ${lz0}"
if "${dir} == 4" then    "variable len0 equal ${lz0}"
variable len0 equal ${lz0}
variable len0 equal 16.8431396103833
if "${dir} == 5" then    "variable len0 equal ${lz0}"
if "${dir} == 6" then    "variable len0 equal ${ly0}"

# Reset box and simulation parameters

clear
OMP_NUM_THREADS environment is not set. Defaulting to 1 thread.
  using 1 OpenMP thread(s) per MPI task
box tilt large

The 'box' command has been removed and will be ignored

read_restart restart_333-EXP-1-vasp.equil
Reading restart file ...
  restart file = 10 Sep 2025, LAMMPS = 10 Sep 2025
  restoring atom style full from restart
  triclinic box = (-0.12771686 -0.089724548 -0.11678381) to (14.87645 13.521555 16.726356) with tilt (-6.2799955 -1.018878 -1.8867226)
  1 by 1 by 1 MPI processor grid
  restoring pair style lj/cut from restart
  restoring bond style harmonic from restart
  restoring angle style hybrid from restart
  restoring dihedral style harmonic from restart
  271 atoms
  291 bonds
  551 angles
  687 dihedrals
Finding 1-2 1-3 1-4 neighbors ...
  special bond factors lj:    0        0        1       
  special bond factors coul:  0        0        1       
     4 = max # of 1-2 neighbors
     8 = max # of 1-3 neighbors
    12 = max # of special neighbors
  special bonds CPU = 0.000 seconds
  read_restart CPU = 0.001 seconds
include ./input/angles_333-EXP-1-vasp.mod
angle_style hybrid fourier cosine/periodic
angle_coeff 1 fourier 58.020602        0.343737        0.374972        0.281246
angle_coeff 2 fourier 83.380072        0.343737        0.374972        0.281246
angle_coeff 3 fourier 157.882480        0.343737        0.374972        0.281246
angle_coeff 4 fourier 221.735285        0.343737        0.374972        0.281246
angle_coeff 5 fourier 32.417871        0.343737        0.374972        0.281246
angle_coeff 6 fourier 114.246973        0.343737        0.374972        0.281246
angle_coeff 7 fourier 90.420412        0.343737        0.374972        0.281246
angle_coeff 8 fourier 75.498766        0.343737        0.374972        0.281246
angle_coeff 9 cosine/periodic 88.853997              -1               3

# Negative deformation

variable delta equal -${up}*${len0}
variable delta equal -0.02*${len0}
variable delta equal -0.02*16.8431396103833
variable deltaxy equal -${up}*xy
variable deltaxy equal -0.02*xy
variable deltaxz equal -${up}*xz
variable deltaxz equal -0.02*xz
variable deltayz equal -${up}*yz
variable deltayz equal -0.02*yz
if "${dir} == 1" then    "change_box all x delta 0 ${delta} xy delta ${deltaxy} xz delta ${deltaxz} remap units box"
if "${dir} == 2" then    "change_box all y delta 0 ${delta} yz delta ${deltayz} remap units box"
if "${dir} == 3" then    "change_box all z delta 0 ${delta} remap units box"
if "${dir} == 4" then    "change_box all yz delta ${delta} remap units box"
change_box all yz delta ${delta} remap units box
change_box all yz delta -0.336862792207666 remap units box
Changing box ...
  triclinic box = (-0.12771686 -0.089724548 -0.11678381) to (14.87645 13.521555 16.726356) with tilt (-6.2799955 -1.018878 -2.2235854)
if "${dir} == 5" then    "change_box all xz delta ${delta} remap units box"
if "${dir} == 6" then    "change_box all xy delta ${delta} remap units box"

# Relax atoms positions

minimize ${etol} ${ftol} ${maxiter} ${maxeval}
minimize 0 ${ftol} ${maxiter} ${maxeval}
minimize 0 1e-10 ${maxiter} ${maxeval}
minimize 0 1e-10 100000 ${maxeval}
minimize 0 1e-10 100000 100000
Generated 6 of 6 mixed pair_coeff terms from arithmetic mixing rule
Neighbor list info ...
  update: every = 1 steps, delay = 0 steps, check = yes
  max neighbors/atom: 2000, page size: 100000
  master list distance cutoff = 7
  ghost atom cutoff = 7
  binsize = 3.5, bins = 7 5 5
  1 neighbor lists, perpetual/occasional/extra = 1 0 0
  (1) pair lj/cut, perpetual
      attributes: half, newton on
      pair build: half/bin/newton/tri
      stencil: half/bin/3d/tri
      bin: standard
WARNING: Inconsistent image flags
For more information see https://docs.lammps.org/err0027 (src/domain.cpp:1052)
Per MPI rank memory allocation (min/avg/max) = 17.48 | 17.48 | 17.48 Mbytes
   Step          Temp          E_pair         E_mol          TotEng         Press     
    250264   306.92185     -343.30302      278.14532      181.85875      2747.8876    
    250297   306.92185     -359.39437      201.95888      89.580953      1454.3285    
Loop time of 0.0196472 on 1 procs for 33 steps with 271 atoms

100.0% CPU use with 1 MPI tasks x 1 OpenMP threads

Minimization stats:
  Stopping criterion = linesearch alpha is zero
  Energy initial, next-to-last, final = 
     -65.1576996064594  -157.435497318194  -157.435497318194
  Force two-norm initial, final = 153.88132 15.340414
  Force max component initial, final = 20.202686 2.1596487
  Final line search alpha, max atom move = 4.9615589e-11 1.0715224e-10
  Iterations, force evaluations = 33 121

MPI task timing breakdown:
Section |  min time  |  avg time  |  max time  |%varavg| %total
---------------------------------------------------------------
Pair    | 0.014108   | 0.014108   | 0.014108   |   0.0 | 71.81
Bond    | 0.0045994  | 0.0045994  | 0.0045994  |   0.0 | 23.41
Neigh   | 0          | 0          | 0          |   0.0 |  0.00
Comm    | 0.00053999 | 0.00053999 | 0.00053999 |   0.0 |  2.75
Output  | 0          | 0          | 0          |   0.0 |  0.00
Modify  | 0          | 0          | 0          |   0.0 |  0.00
Other   |            | 0.0004001  |            |       |  2.04

Nlocal:            271 ave         271 max         271 min
Histogram: 1 0 0 0 0 0 0 0 0 0
Nghost:           1763 ave        1763 max        1763 min
Histogram: 1 0 0 0 0 0 0 0 0 0
Neighs:          14319 ave       14319 max       14319 min
Histogram: 1 0 0 0 0 0 0 0 0 0

Total # of neighbors = 14319
Ave neighs/atom = 52.837638
Ave special neighs/atom = 6.2140221
Neighbor list builds = 0
Dangerous builds = 0

# Obtain new stress tensor

variable tmp equal pxx
variable pxx1 equal ${tmp}
variable pxx1 equal -1163.86953105333
variable tmp equal pyy
variable pyy1 equal ${tmp}
variable pyy1 equal 2534.57768659391
variable tmp equal pzz
variable pzz1 equal ${tmp}
variable pzz1 equal 2992.27732105535
variable tmp equal pxy
variable pxy1 equal ${tmp}
variable pxy1 equal 316.158348620761
variable tmp equal pxz
variable pxz1 equal ${tmp}
variable pxz1 equal -926.120330435257
variable tmp equal pyz
variable pyz1 equal ${tmp}
variable pyz1 equal 3079.19975394059

# Compute elastic constant from pressure tensor

variable C1neg equal ${d1}
variable C1neg equal -22.8967444142027
variable C2neg equal ${d2}
variable C2neg equal -0.221787746652599
variable C3neg equal ${d3}
variable C3neg equal -0.16869352932245
variable C4neg equal ${d4}
variable C4neg equal 14.1817097515219
variable C5neg equal ${d5}
variable C5neg equal 5.95680732347937
variable C6neg equal ${d6}
variable C6neg equal 1.05373844387196

# Reset box and simulation parameters

clear
OMP_NUM_THREADS environment is not set. Defaulting to 1 thread.
  using 1 OpenMP thread(s) per MPI task
box tilt large

The 'box' command has been removed and will be ignored

read_restart restart_333-EXP-1-vasp.equil
Reading restart file ...
  restart file = 10 Sep 2025, LAMMPS = 10 Sep 2025
  restoring atom style full from restart
  triclinic box = (-0.12771686 -0.089724548 -0.11678381) to (14.87645 13.521555 16.726356) with tilt (-6.2799955 -1.018878 -1.8867226)
  1 by 1 by 1 MPI processor grid
  restoring pair style lj/cut from restart
  restoring bond style harmonic from restart
  restoring angle style hybrid from restart
  restoring dihedral style harmonic from restart
  271 atoms
  291 bonds
  551 angles
  687 dihedrals
Finding 1-2 1-3 1-4 neighbors ...
  special bond factors lj:    0        0        1       
  special bond factors coul:  0        0        1       
     4 = max # of 1-2 neighbors
     8 = max # of 1-3 neighbors
    12 = max # of special neighbors
  special bonds CPU = 0.000 seconds
  read_restart CPU = 0.001 seconds
include ./input/angles_333-EXP-1-vasp.mod
angle_style hybrid fourier cosine/periodic
angle_coeff 1 fourier 58.020602        0.343737        0.374972        0.281246
angle_coeff 2 fourier 83.380072        0.343737        0.374972        0.281246
angle_coeff 3 fourier 157.882480        0.343737        0.374972        0.281246
angle_coeff 4 fourier 221.735285        0.343737        0.374972        0.281246
angle_coeff 5 fourier 32.417871        0.343737        0.374972        0.281246
angle_coeff 6 fourier 114.246973        0.343737        0.374972        0.281246
angle_coeff 7 fourier 90.420412        0.343737        0.374972        0.281246
angle_coeff 8 fourier 75.498766        0.343737        0.374972        0.281246
angle_coeff 9 cosine/periodic 88.853997              -1               3

# Positive deformation

variable delta equal ${up}*${len0}
variable delta equal 0.02*${len0}
variable delta equal 0.02*16.8431396103833
variable deltaxy equal ${up}*xy
variable deltaxy equal 0.02*xy
variable deltaxz equal ${up}*xz
variable deltaxz equal 0.02*xz
variable deltayz equal ${up}*yz
variable deltayz equal 0.02*yz
if "${dir} == 1" then    "change_box all x delta 0 ${delta} xy delta ${deltaxy} xz delta ${deltaxz} remap units box"
if "${dir} == 2" then    "change_box all y delta 0 ${delta} yz delta ${deltayz} remap units box"
if "${dir} == 3" then    "change_box all z delta 0 ${delta} remap units box"
if "${dir} == 4" then    "change_box all yz delta ${delta} remap units box"
change_box all yz delta ${delta} remap units box
change_box all yz delta 0.336862792207666 remap units box
Changing box ...
  triclinic box = (-0.12771686 -0.089724548 -0.11678381) to (14.87645 13.521555 16.726356) with tilt (-6.2799955 -1.018878 -1.5498598)
if "${dir} == 5" then    "change_box all xz delta ${delta} remap units box"
if "${dir} == 6" then    "change_box all xy delta ${delta} remap units box"

# Relax atoms positions

minimize ${etol} ${ftol} ${maxiter} ${maxeval}
minimize 0 ${ftol} ${maxiter} ${maxeval}
minimize 0 1e-10 ${maxiter} ${maxeval}
minimize 0 1e-10 100000 ${maxeval}
minimize 0 1e-10 100000 100000
Generated 6 of 6 mixed pair_coeff terms from arithmetic mixing rule
Neighbor list info ...
  update: every = 1 steps, delay = 0 steps, check = yes
  max neighbors/atom: 2000, page size: 100000
  master list distance cutoff = 7
  ghost atom cutoff = 7
  binsize = 3.5, bins = 7 5 5
  1 neighbor lists, perpetual/occasional/extra = 1 0 0
  (1) pair lj/cut, perpetual
      attributes: half, newton on
      pair build: half/bin/newton/tri
      stencil: half/bin/3d/tri
      bin: standard
WARNING: Inconsistent image flags
For more information see https://docs.lammps.org/err0027 (src/domain.cpp:1052)
Per MPI rank memory allocation (min/avg/max) = 17.48 | 17.48 | 17.48 Mbytes
   Step          Temp          E_pair         E_mol          TotEng         Press     
    250264   306.92185     -342.37536      276.37091      181.012        2882.4573    
    250297   306.92185     -357.52946      200.80195      90.288938      1156.9927    
Loop time of 0.0194319 on 1 procs for 33 steps with 271 atoms

100.0% CPU use with 1 MPI tasks x 1 OpenMP threads

Minimization stats:
  Stopping criterion = linesearch alpha is zero
  Energy initial, next-to-last, final = 
     -66.0044548692769  -156.727512905534  -156.727512905534
  Force two-norm initial, final = 154.53665 15.075793
  Force max component initial, final = 19.310217 1.9732311
  Final line search alpha, max atom move = 5.0302117e-11 9.9257703e-11
  Iterations, force evaluations = 33 121

MPI task timing breakdown:
Section |  min time  |  avg time  |  max time  |%varavg| %total
---------------------------------------------------------------
Pair    | 0.013915   | 0.013915   | 0.013915   |   0.0 | 71.61
Bond    | 0.0045838  | 0.0045838  | 0.0045838  |   0.0 | 23.59
Neigh   | 0          | 0          | 0          |   0.0 |  0.00
Comm    | 0.00053286 | 0.00053286 | 0.00053286 |   0.0 |  2.74
Output  | 0          | 0          | 0          |   0.0 |  0.00
Modify  | 0          | 0          | 0          |   0.0 |  0.00
Other   |            | 0.0004001  |            |       |  2.06

Nlocal:            271 ave         271 max         271 min
Histogram: 1 0 0 0 0 0 0 0 0 0
Nghost:           1749 ave        1749 max        1749 min
Histogram: 1 0 0 0 0 0 0 0 0 0
Neighs:          14326 ave       14326 max       14326 min
Histogram: 1 0 0 0 0 0 0 0 0 0

Total # of neighbors = 14326
Ave neighs/atom = 52.863469
Ave special neighs/atom = 6.2140221
Neighbor list builds = 0
Dangerous builds = 0

# Obtain new stress tensor

variable tmp equal pe
variable e1 equal ${tmp}
variable e1 equal -156.727512905534
variable tmp equal press
variable p1 equal ${tmp}
variable p1 equal 1156.99270979936
variable tmp equal pxx
variable pxx1 equal ${tmp}
variable pxx1 equal -464.435744515379
variable tmp equal pyy
variable pyy1 equal ${tmp}
variable pyy1 equal 2172.70701391972
variable tmp equal pzz
variable pzz1 equal ${tmp}
variable pzz1 equal 1762.70685999374
variable tmp equal pxy
variable pxy1 equal ${tmp}
variable pxy1 equal -129.882686531368
variable tmp equal pxz
variable pxz1 equal ${tmp}
variable pxz1 equal -339.977171425953
variable tmp equal pyz
variable pyz1 equal ${tmp}
variable pyz1 equal -2261.54171984669

# Compute elastic constant from pressure tensor

variable C1pos equal ${d1}
variable C1pos equal 19.3995754815129
variable C2pos equal ${d2}
variable C2pos equal 2.03114111002355
variable C3pos equal ${d3}
variable C3pos equal 6.3165458346305
variable C4pos equal ${d4}
variable C4pos equal 12.5219976174145
variable C5pos equal ${d5}
variable C5pos equal -8.88752311852589
variable C6pos equal ${d6}
variable C6pos equal 1.17646673188869

# Combine positive and negative

variable C1${dir} equal 0.5*(${C1neg}+${C1pos})
variable C14 equal 0.5*(${C1neg}+${C1pos})
variable C14 equal 0.5*(-22.8967444142027+${C1pos})
variable C14 equal 0.5*(-22.8967444142027+19.3995754815129)
variable C2${dir} equal 0.5*(${C2neg}+${C2pos})
variable C24 equal 0.5*(${C2neg}+${C2pos})
variable C24 equal 0.5*(-0.221787746652599+${C2pos})
variable C24 equal 0.5*(-0.221787746652599+2.03114111002355)
variable C3${dir} equal 0.5*(${C3neg}+${C3pos})
variable C34 equal 0.5*(${C3neg}+${C3pos})
variable C34 equal 0.5*(-0.16869352932245+${C3pos})
variable C34 equal 0.5*(-0.16869352932245+6.3165458346305)
variable C4${dir} equal 0.5*(${C4neg}+${C4pos})
variable C44 equal 0.5*(${C4neg}+${C4pos})
variable C44 equal 0.5*(14.1817097515219+${C4pos})
variable C44 equal 0.5*(14.1817097515219+12.5219976174145)
variable C5${dir} equal 0.5*(${C5neg}+${C5pos})
variable C54 equal 0.5*(${C5neg}+${C5pos})
variable C54 equal 0.5*(5.95680732347937+${C5pos})
variable C54 equal 0.5*(5.95680732347937+-8.88752311852589)
variable C6${dir} equal 0.5*(${C6neg}+${C6pos})
variable C64 equal 0.5*(${C6neg}+${C6pos})
variable C64 equal 0.5*(1.05373844387196+${C6pos})
variable C64 equal 0.5*(1.05373844387196+1.17646673188869)

# Delete dir to make sure it is not reused

variable dir delete

# uxz Perturbation

variable dir equal 5
include ./input/displace_333-EXP-1-vasp.mod
if "${dir} == 1" then    "variable len0 equal ${lx0}"
if "${dir} == 2" then    "variable len0 equal ${ly0}"
if "${dir} == 3" then    "variable len0 equal ${lz0}"
if "${dir} == 4" then    "variable len0 equal ${lz0}"
if "${dir} == 5" then    "variable len0 equal ${lz0}"
variable len0 equal ${lz0}
variable len0 equal 16.8431396103833
if "${dir} == 6" then    "variable len0 equal ${ly0}"

# Reset box and simulation parameters

clear
OMP_NUM_THREADS environment is not set. Defaulting to 1 thread.
  using 1 OpenMP thread(s) per MPI task
box tilt large

The 'box' command has been removed and will be ignored

read_restart restart_333-EXP-1-vasp.equil
Reading restart file ...
  restart file = 10 Sep 2025, LAMMPS = 10 Sep 2025
  restoring atom style full from restart
  triclinic box = (-0.12771686 -0.089724548 -0.11678381) to (14.87645 13.521555 16.726356) with tilt (-6.2799955 -1.018878 -1.8867226)
  1 by 1 by 1 MPI processor grid
  restoring pair style lj/cut from restart
  restoring bond style harmonic from restart
  restoring angle style hybrid from restart
  restoring dihedral style harmonic from restart
  271 atoms
  291 bonds
  551 angles
  687 dihedrals
Finding 1-2 1-3 1-4 neighbors ...
  special bond factors lj:    0        0        1       
  special bond factors coul:  0        0        1       
     4 = max # of 1-2 neighbors
     8 = max # of 1-3 neighbors
    12 = max # of special neighbors
  special bonds CPU = 0.000 seconds
  read_restart CPU = 0.001 seconds
include ./input/angles_333-EXP-1-vasp.mod
angle_style hybrid fourier cosine/periodic
angle_coeff 1 fourier 58.020602        0.343737        0.374972        0.281246
angle_coeff 2 fourier 83.380072        0.343737        0.374972        0.281246
angle_coeff 3 fourier 157.882480        0.343737        0.374972        0.281246
angle_coeff 4 fourier 221.735285        0.343737        0.374972        0.281246
angle_coeff 5 fourier 32.417871        0.343737        0.374972        0.281246
angle_coeff 6 fourier 114.246973        0.343737        0.374972        0.281246
angle_coeff 7 fourier 90.420412        0.343737        0.374972        0.281246
angle_coeff 8 fourier 75.498766        0.343737        0.374972        0.281246
angle_coeff 9 cosine/periodic 88.853997              -1               3

# Negative deformation

variable delta equal -${up}*${len0}
variable delta equal -0.02*${len0}
variable delta equal -0.02*16.8431396103833
variable deltaxy equal -${up}*xy
variable deltaxy equal -0.02*xy
variable deltaxz equal -${up}*xz
variable deltaxz equal -0.02*xz
variable deltayz equal -${up}*yz
variable deltayz equal -0.02*yz
if "${dir} == 1" then    "change_box all x delta 0 ${delta} xy delta ${deltaxy} xz delta ${deltaxz} remap units box"
if "${dir} == 2" then    "change_box all y delta 0 ${delta} yz delta ${deltayz} remap units box"
if "${dir} == 3" then    "change_box all z delta 0 ${delta} remap units box"
if "${dir} == 4" then    "change_box all yz delta ${delta} remap units box"
if "${dir} == 5" then    "change_box all xz delta ${delta} remap units box"
change_box all xz delta ${delta} remap units box
change_box all xz delta -0.336862792207666 remap units box
Changing box ...
  triclinic box = (-0.12771686 -0.089724548 -0.11678381) to (14.87645 13.521555 16.726356) with tilt (-6.2799955 -1.3557408 -1.8867226)
if "${dir} == 6" then    "change_box all xy delta ${delta} remap units box"

# Relax atoms positions

minimize ${etol} ${ftol} ${maxiter} ${maxeval}
minimize 0 ${ftol} ${maxiter} ${maxeval}
minimize 0 1e-10 ${maxiter} ${maxeval}
minimize 0 1e-10 100000 ${maxeval}
minimize 0 1e-10 100000 100000
Generated 6 of 6 mixed pair_coeff terms from arithmetic mixing rule
Neighbor list info ...
  update: every = 1 steps, delay = 0 steps, check = yes
  max neighbors/atom: 2000, page size: 100000
  master list distance cutoff = 7
  ghost atom cutoff = 7
  binsize = 3.5, bins = 7 5 5
  1 neighbor lists, perpetual/occasional/extra = 1 0 0
  (1) pair lj/cut, perpetual
      attributes: half, newton on
      pair build: half/bin/newton/tri
      stencil: half/bin/3d/tri
      bin: standard
WARNING: Inconsistent image flags
For more information see https://docs.lammps.org/err0027 (src/domain.cpp:1052)
Per MPI rank memory allocation (min/avg/max) = 17.48 | 17.48 | 17.48 Mbytes
   Step          Temp          E_pair         E_mol          TotEng         Press     
    250264   306.92185     -341.7314       274.99103      180.27608      2772.1138    
    250307   306.92185     -358.14718      200.10586      88.975129      1428.5974    
Loop time of 0.0228073 on 1 procs for 43 steps with 271 atoms

100.0% CPU use with 1 MPI tasks x 1 OpenMP threads

Minimization stats:
  Stopping criterion = linesearch alpha is zero
  Energy initial, next-to-last, final = 
     -66.7403688765008  -158.041321801982  -158.041321801982
  Force two-norm initial, final = 150.83875 10.661128
  Force max component initial, final = 15.670334 1.967654
  Final line search alpha, max atom move = 6.0660232e-11 1.1935835e-10
  Iterations, force evaluations = 43 141

MPI task timing breakdown:
Section |  min time  |  avg time  |  max time  |%varavg| %total
---------------------------------------------------------------
Pair    | 0.016331   | 0.016331   | 0.016331   |   0.0 | 71.61
Bond    | 0.0053398  | 0.0053398  | 0.0053398  |   0.0 | 23.41
Neigh   | 0          | 0          | 0          |   0.0 |  0.00
Comm    | 0.00065114 | 0.00065114 | 0.00065114 |   0.0 |  2.85
Output  | 0          | 0          | 0          |   0.0 |  0.00
Modify  | 0          | 0          | 0          |   0.0 |  0.00
Other   |            | 0.000485   |            |       |  2.13

Nlocal:            271 ave         271 max         271 min
Histogram: 1 0 0 0 0 0 0 0 0 0
Nghost:           1757 ave        1757 max        1757 min
Histogram: 1 0 0 0 0 0 0 0 0 0
Neighs:          14321 ave       14321 max       14321 min
Histogram: 1 0 0 0 0 0 0 0 0 0

Total # of neighbors = 14321
Ave neighs/atom = 52.845018
Ave special neighs/atom = 6.2140221
Neighbor list builds = 0
Dangerous builds = 0

# Obtain new stress tensor

variable tmp equal pxx
variable pxx1 equal ${tmp}
variable pxx1 equal -1500.32308265644
variable tmp equal pyy
variable pyy1 equal ${tmp}
variable pyy1 equal 2860.96500729246
variable tmp equal pzz
variable pzz1 equal ${tmp}
variable pzz1 equal 2925.15021423255
variable tmp equal pxy
variable pxy1 equal ${tmp}
variable pxy1 equal 736.254483389109
variable tmp equal pxz
variable pxz1 equal ${tmp}
variable pxz1 equal 2425.89760627087
variable tmp equal pyz
variable pyz1 equal ${tmp}
variable pyz1 equal 58.3262478169543

# Compute elastic constant from pressure tensor

variable C1neg equal ${d1}
variable C1neg equal -24.5790121722182
variable C2neg equal ${d2}
variable C2neg equal 1.41014885684015
variable C3neg equal ${d3}
variable C3neg equal -0.504329063436451
variable C4neg equal ${d4}
variable C4neg equal -0.922657779096293
variable C5neg equal ${d5}
variable C5neg equal 22.71689700701
variable C6neg equal ${d6}
variable C6neg equal 3.1542191177137

# Reset box and simulation parameters

clear
OMP_NUM_THREADS environment is not set. Defaulting to 1 thread.
  using 1 OpenMP thread(s) per MPI task
box tilt large

The 'box' command has been removed and will be ignored

read_restart restart_333-EXP-1-vasp.equil
Reading restart file ...
  restart file = 10 Sep 2025, LAMMPS = 10 Sep 2025
  restoring atom style full from restart
  triclinic box = (-0.12771686 -0.089724548 -0.11678381) to (14.87645 13.521555 16.726356) with tilt (-6.2799955 -1.018878 -1.8867226)
  1 by 1 by 1 MPI processor grid
  restoring pair style lj/cut from restart
  restoring bond style harmonic from restart
  restoring angle style hybrid from restart
  restoring dihedral style harmonic from restart
  271 atoms
  291 bonds
  551 angles
  687 dihedrals
Finding 1-2 1-3 1-4 neighbors ...
  special bond factors lj:    0        0        1       
  special bond factors coul:  0        0        1       
     4 = max # of 1-2 neighbors
     8 = max # of 1-3 neighbors
    12 = max # of special neighbors
  special bonds CPU = 0.000 seconds
  read_restart CPU = 0.001 seconds
include ./input/angles_333-EXP-1-vasp.mod
angle_style hybrid fourier cosine/periodic
angle_coeff 1 fourier 58.020602        0.343737        0.374972        0.281246
angle_coeff 2 fourier 83.380072        0.343737        0.374972        0.281246
angle_coeff 3 fourier 157.882480        0.343737        0.374972        0.281246
angle_coeff 4 fourier 221.735285        0.343737        0.374972        0.281246
angle_coeff 5 fourier 32.417871        0.343737        0.374972        0.281246
angle_coeff 6 fourier 114.246973        0.343737        0.374972        0.281246
angle_coeff 7 fourier 90.420412        0.343737        0.374972        0.281246
angle_coeff 8 fourier 75.498766        0.343737        0.374972        0.281246
angle_coeff 9 cosine/periodic 88.853997              -1               3

# Positive deformation

variable delta equal ${up}*${len0}
variable delta equal 0.02*${len0}
variable delta equal 0.02*16.8431396103833
variable deltaxy equal ${up}*xy
variable deltaxy equal 0.02*xy
variable deltaxz equal ${up}*xz
variable deltaxz equal 0.02*xz
variable deltayz equal ${up}*yz
variable deltayz equal 0.02*yz
if "${dir} == 1" then    "change_box all x delta 0 ${delta} xy delta ${deltaxy} xz delta ${deltaxz} remap units box"
if "${dir} == 2" then    "change_box all y delta 0 ${delta} yz delta ${deltayz} remap units box"
if "${dir} == 3" then    "change_box all z delta 0 ${delta} remap units box"
if "${dir} == 4" then    "change_box all yz delta ${delta} remap units box"
if "${dir} == 5" then    "change_box all xz delta ${delta} remap units box"
change_box all xz delta ${delta} remap units box
change_box all xz delta 0.336862792207666 remap units box
Changing box ...
  triclinic box = (-0.12771686 -0.089724548 -0.11678381) to (14.87645 13.521555 16.726356) with tilt (-6.2799955 -0.68201522 -1.8867226)
if "${dir} == 6" then    "change_box all xy delta ${delta} remap units box"

# Relax atoms positions

minimize ${etol} ${ftol} ${maxiter} ${maxeval}
minimize 0 ${ftol} ${maxiter} ${maxeval}
minimize 0 1e-10 ${maxiter} ${maxeval}
minimize 0 1e-10 100000 ${maxeval}
minimize 0 1e-10 100000 100000
Generated 6 of 6 mixed pair_coeff terms from arithmetic mixing rule
Neighbor list info ...
  update: every = 1 steps, delay = 0 steps, check = yes
  max neighbors/atom: 2000, page size: 100000
  master list distance cutoff = 7
  ghost atom cutoff = 7
  binsize = 3.5, bins = 7 5 5
  1 neighbor lists, perpetual/occasional/extra = 1 0 0
  (1) pair lj/cut, perpetual
      attributes: half, newton on
      pair build: half/bin/newton/tri
      stencil: half/bin/3d/tri
      bin: standard
WARNING: Inconsistent image flags
For more information see https://docs.lammps.org/err0027 (src/domain.cpp:1052)
Per MPI rank memory allocation (min/avg/max) = 17.48 | 17.48 | 17.48 Mbytes
   Step          Temp          E_pair         E_mol          TotEng         Press     
    250264   306.92185     -343.70863      279.50387      182.81168      2863.8804    
    250294   306.92185     -358.38308      201.90107      90.534434      1360.8987    
Loop time of 0.0187509 on 1 procs for 30 steps with 271 atoms

100.0% CPU use with 1 MPI tasks x 1 OpenMP threads

Minimization stats:
  Stopping criterion = linesearch alpha is zero
  Energy initial, next-to-last, final = 
     -64.2047673958445  -156.482015984855  -156.482015984855
  Force two-norm initial, final = 155.51773 16.439324
  Force max component initial, final = 18.525101 3.2969422
  Final line search alpha, max atom move = 2.6166832e-11 8.6270532e-11
  Iterations, force evaluations = 30 117

MPI task timing breakdown:
Section |  min time  |  avg time  |  max time  |%varavg| %total
---------------------------------------------------------------
Pair    | 0.013433   | 0.013433   | 0.013433   |   0.0 | 71.64
Bond    | 0.0043956  | 0.0043956  | 0.0043956  |   0.0 | 23.44
Neigh   | 0          | 0          | 0          |   0.0 |  0.00
Comm    | 0.00054166 | 0.00054166 | 0.00054166 |   0.0 |  2.89
Output  | 0          | 0          | 0          |   0.0 |  0.00
Modify  | 0          | 0          | 0          |   0.0 |  0.00
Other   |            | 0.0003801  |            |       |  2.03

Nlocal:            271 ave         271 max         271 min
Histogram: 1 0 0 0 0 0 0 0 0 0
Nghost:           1749 ave        1749 max        1749 min
Histogram: 1 0 0 0 0 0 0 0 0 0
Neighs:          14318 ave       14318 max       14318 min
Histogram: 1 0 0 0 0 0 0 0 0 0

Total # of neighbors = 14318
Ave neighs/atom = 52.833948
Ave special neighs/atom = 6.2140221
Neighbor list builds = 0
Dangerous builds = 0

# Obtain new stress tensor

variable tmp equal pe
variable e1 equal ${tmp}
variable e1 equal -156.482015984855
variable tmp equal press
variable p1 equal ${tmp}
variable p1 equal 1360.89866286731
variable tmp equal pxx
variable pxx1 equal ${tmp}
variable pxx1 equal -439.308713633588
variable tmp equal pyy
variable pyy1 equal ${tmp}
variable pyy1 equal 2467.98959872192
variable tmp equal pzz
variable pzz1 equal ${tmp}
variable pzz1 equal 2054.01510351358
variable tmp equal pxy
variable pxy1 equal ${tmp}
variable pxy1 equal -147.166832477321
variable tmp equal pxz
variable pxz1 equal ${tmp}
variable pxz1 equal -3764.68648804925
variable tmp equal pyz
variable pyz1 equal ${tmp}
variable pyz1 equal 822.141136170614

# Compute elastic constant from pressure tensor

variable C1pos equal ${d1}
variable C1pos equal 19.273940327104
variable C2pos equal ${d2}
variable C2pos equal 0.554728186012549
variable C3pos equal ${d3}
variable C3pos equal 4.8600046170313
variable C4pos equal ${d4}
variable C4pos equal -2.89641666267201
variable C5pos equal ${d5}
variable C5pos equal 8.2360234645906
variable C6pos equal ${d6}
variable C6pos equal 1.26288746161845

# Combine positive and negative

variable C1${dir} equal 0.5*(${C1neg}+${C1pos})
variable C15 equal 0.5*(${C1neg}+${C1pos})
variable C15 equal 0.5*(-24.5790121722182+${C1pos})
variable C15 equal 0.5*(-24.5790121722182+19.273940327104)
variable C2${dir} equal 0.5*(${C2neg}+${C2pos})
variable C25 equal 0.5*(${C2neg}+${C2pos})
variable C25 equal 0.5*(1.41014885684015+${C2pos})
variable C25 equal 0.5*(1.41014885684015+0.554728186012549)
variable C3${dir} equal 0.5*(${C3neg}+${C3pos})
variable C35 equal 0.5*(${C3neg}+${C3pos})
variable C35 equal 0.5*(-0.504329063436451+${C3pos})
variable C35 equal 0.5*(-0.504329063436451+4.8600046170313)
variable C4${dir} equal 0.5*(${C4neg}+${C4pos})
variable C45 equal 0.5*(${C4neg}+${C4pos})
variable C45 equal 0.5*(-0.922657779096293+${C4pos})
variable C45 equal 0.5*(-0.922657779096293+-2.89641666267201)
variable C5${dir} equal 0.5*(${C5neg}+${C5pos})
variable C55 equal 0.5*(${C5neg}+${C5pos})
variable C55 equal 0.5*(22.71689700701+${C5pos})
variable C55 equal 0.5*(22.71689700701+8.2360234645906)
variable C6${dir} equal 0.5*(${C6neg}+${C6pos})
variable C65 equal 0.5*(${C6neg}+${C6pos})
variable C65 equal 0.5*(3.1542191177137+${C6pos})
variable C65 equal 0.5*(3.1542191177137+1.26288746161845)

# Delete dir to make sure it is not reused

variable dir delete

# uxy Perturbation

variable dir equal 6
include ./input/displace_333-EXP-1-vasp.mod
if "${dir} == 1" then    "variable len0 equal ${lx0}"
if "${dir} == 2" then    "variable len0 equal ${ly0}"
if "${dir} == 3" then    "variable len0 equal ${lz0}"
if "${dir} == 4" then    "variable len0 equal ${lz0}"
if "${dir} == 5" then    "variable len0 equal ${lz0}"
if "${dir} == 6" then    "variable len0 equal ${ly0}"
variable len0 equal ${ly0}
variable len0 equal 13.6112790951766

# Reset box and simulation parameters

clear
OMP_NUM_THREADS environment is not set. Defaulting to 1 thread.
  using 1 OpenMP thread(s) per MPI task
box tilt large

The 'box' command has been removed and will be ignored

read_restart restart_333-EXP-1-vasp.equil
Reading restart file ...
  restart file = 10 Sep 2025, LAMMPS = 10 Sep 2025
  restoring atom style full from restart
  triclinic box = (-0.12771686 -0.089724548 -0.11678381) to (14.87645 13.521555 16.726356) with tilt (-6.2799955 -1.018878 -1.8867226)
  1 by 1 by 1 MPI processor grid
  restoring pair style lj/cut from restart
  restoring bond style harmonic from restart
  restoring angle style hybrid from restart
  restoring dihedral style harmonic from restart
  271 atoms
  291 bonds
  551 angles
  687 dihedrals
Finding 1-2 1-3 1-4 neighbors ...
  special bond factors lj:    0        0        1       
  special bond factors coul:  0        0        1       
     4 = max # of 1-2 neighbors
     8 = max # of 1-3 neighbors
    12 = max # of special neighbors
  special bonds CPU = 0.000 seconds
  read_restart CPU = 0.001 seconds
include ./input/angles_333-EXP-1-vasp.mod
angle_style hybrid fourier cosine/periodic
angle_coeff 1 fourier 58.020602        0.343737        0.374972        0.281246
angle_coeff 2 fourier 83.380072        0.343737        0.374972        0.281246
angle_coeff 3 fourier 157.882480        0.343737        0.374972        0.281246
angle_coeff 4 fourier 221.735285        0.343737        0.374972        0.281246
angle_coeff 5 fourier 32.417871        0.343737        0.374972        0.281246
angle_coeff 6 fourier 114.246973        0.343737        0.374972        0.281246
angle_coeff 7 fourier 90.420412        0.343737        0.374972        0.281246
angle_coeff 8 fourier 75.498766        0.343737        0.374972        0.281246
angle_coeff 9 cosine/periodic 88.853997              -1               3

# Negative deformation

variable delta equal -${up}*${len0}
variable delta equal -0.02*${len0}
variable delta equal -0.02*13.6112790951766
variable deltaxy equal -${up}*xy
variable deltaxy equal -0.02*xy
variable deltaxz equal -${up}*xz
variable deltaxz equal -0.02*xz
variable deltayz equal -${up}*yz
variable deltayz equal -0.02*yz
if "${dir} == 1" then    "change_box all x delta 0 ${delta} xy delta ${deltaxy} xz delta ${deltaxz} remap units box"
if "${dir} == 2" then    "change_box all y delta 0 ${delta} yz delta ${deltayz} remap units box"
if "${dir} == 3" then    "change_box all z delta 0 ${delta} remap units box"
if "${dir} == 4" then    "change_box all yz delta ${delta} remap units box"
if "${dir} == 5" then    "change_box all xz delta ${delta} remap units box"
if "${dir} == 6" then    "change_box all xy delta ${delta} remap units box"
change_box all xy delta ${delta} remap units box
change_box all xy delta -0.272225581903532 remap units box
Changing box ...
  triclinic box = (-0.12771686 -0.089724548 -0.11678381) to (14.87645 13.521555 16.726356) with tilt (-6.5522211 -1.018878 -1.8867226)

# Relax atoms positions

minimize ${etol} ${ftol} ${maxiter} ${maxeval}
minimize 0 ${ftol} ${maxiter} ${maxeval}
minimize 0 1e-10 ${maxiter} ${maxeval}
minimize 0 1e-10 100000 ${maxeval}
minimize 0 1e-10 100000 100000
Generated 6 of 6 mixed pair_coeff terms from arithmetic mixing rule
Neighbor list info ...
  update: every = 1 steps, delay = 0 steps, check = yes
  max neighbors/atom: 2000, page size: 100000
  master list distance cutoff = 7
  ghost atom cutoff = 7
  binsize = 3.5, bins = 7 5 5
  1 neighbor lists, perpetual/occasional/extra = 1 0 0
  (1) pair lj/cut, perpetual
      attributes: half, newton on
      pair build: half/bin/newton/tri
      stencil: half/bin/3d/tri
      bin: standard
WARNING: Inconsistent image flags
For more information see https://docs.lammps.org/err0027 (src/domain.cpp:1052)
Per MPI rank memory allocation (min/avg/max) = 17.48 | 17.48 | 17.48 Mbytes
   Step          Temp          E_pair         E_mol          TotEng         Press     
    250264   306.92185     -343.41311      276.68571      180.28905      2603.4383    
    250296   306.92185     -359.03151      202.03505      90.019998      1173.3361    
Loop time of 0.0194621 on 1 procs for 32 steps with 271 atoms

100.0% CPU use with 1 MPI tasks x 1 OpenMP threads

Minimization stats:
  Stopping criterion = linesearch alpha is zero
  Energy initial, next-to-last, final = 
     -66.7274044889301  -156.996452293303  -156.996452293303
  Force two-norm initial, final = 154.99343 15.613174
  Force max component initial, final = 17.089895 2.1209537
  Final line search alpha, max atom move = 4.9382841e-11 1.0473872e-10
  Iterations, force evaluations = 32 119

MPI task timing breakdown:
Section |  min time  |  avg time  |  max time  |%varavg| %total
---------------------------------------------------------------
Pair    | 0.013953   | 0.013953   | 0.013953   |   0.0 | 71.69
Bond    | 0.0045268  | 0.0045268  | 0.0045268  |   0.0 | 23.26
Neigh   | 0          | 0          | 0          |   0.0 |  0.00
Comm    | 0.00056848 | 0.00056848 | 0.00056848 |   0.0 |  2.92
Output  | 0          | 0          | 0          |   0.0 |  0.00
Modify  | 0          | 0          | 0          |   0.0 |  0.00
Other   |            | 0.0004138  |            |       |  2.13

Nlocal:            271 ave         271 max         271 min
Histogram: 1 0 0 0 0 0 0 0 0 0
Nghost:           1765 ave        1765 max        1765 min
Histogram: 1 0 0 0 0 0 0 0 0 0
Neighs:          14314 ave       14314 max       14314 min
Histogram: 1 0 0 0 0 0 0 0 0 0

Total # of neighbors = 14314
Ave neighs/atom = 52.819188
Ave special neighs/atom = 6.2140221
Neighbor list builds = 0
Dangerous builds = 0

# Obtain new stress tensor

variable tmp equal pxx
variable pxx1 equal ${tmp}
variable pxx1 equal -515.332414493409
variable tmp equal pyy
variable pyy1 equal ${tmp}
variable pyy1 equal 1751.85074507686
variable tmp equal pzz
variable pzz1 equal ${tmp}
variable pzz1 equal 2283.48999163176
variable tmp equal pxy
variable pxy1 equal ${tmp}
variable pxy1 equal 2699.54931946129
variable tmp equal pxz
variable pxz1 equal ${tmp}
variable pxz1 equal -179.35746626843
variable tmp equal pyz
variable pyz1 equal ${tmp}
variable pyz1 equal 750.94841149285

# Compute elastic constant from pressure tensor

variable C1neg equal ${d1}
variable C1neg equal -19.6540588314031
variable C2neg equal ${d2}
variable C2neg equal -4.13542245423785
variable C3neg equal ${d3}
variable C3neg equal -3.7126301764404
variable C4neg equal ${d4}
variable C4neg equal 2.54045303928318
variable C5neg equal ${d5}
variable C5neg equal 9.6906216443135
variable C6neg equal ${d6}
variable C6neg equal 12.9706932980746

# Reset box and simulation parameters

clear
OMP_NUM_THREADS environment is not set. Defaulting to 1 thread.
  using 1 OpenMP thread(s) per MPI task
box tilt large

The 'box' command has been removed and will be ignored

read_restart restart_333-EXP-1-vasp.equil
Reading restart file ...
  restart file = 10 Sep 2025, LAMMPS = 10 Sep 2025
  restoring atom style full from restart
  triclinic box = (-0.12771686 -0.089724548 -0.11678381) to (14.87645 13.521555 16.726356) with tilt (-6.2799955 -1.018878 -1.8867226)
  1 by 1 by 1 MPI processor grid
  restoring pair style lj/cut from restart
  restoring bond style harmonic from restart
  restoring angle style hybrid from restart
  restoring dihedral style harmonic from restart
  271 atoms
  291 bonds
  551 angles
  687 dihedrals
Finding 1-2 1-3 1-4 neighbors ...
  special bond factors lj:    0        0        1       
  special bond factors coul:  0        0        1       
     4 = max # of 1-2 neighbors
     8 = max # of 1-3 neighbors
    12 = max # of special neighbors
  special bonds CPU = 0.000 seconds
  read_restart CPU = 0.001 seconds
include ./input/angles_333-EXP-1-vasp.mod
angle_style hybrid fourier cosine/periodic
angle_coeff 1 fourier 58.020602        0.343737        0.374972        0.281246
angle_coeff 2 fourier 83.380072        0.343737        0.374972        0.281246
angle_coeff 3 fourier 157.882480        0.343737        0.374972        0.281246
angle_coeff 4 fourier 221.735285        0.343737        0.374972        0.281246
angle_coeff 5 fourier 32.417871        0.343737        0.374972        0.281246
angle_coeff 6 fourier 114.246973        0.343737        0.374972        0.281246
angle_coeff 7 fourier 90.420412        0.343737        0.374972        0.281246
angle_coeff 8 fourier 75.498766        0.343737        0.374972        0.281246
angle_coeff 9 cosine/periodic 88.853997              -1               3

# Positive deformation

variable delta equal ${up}*${len0}
variable delta equal 0.02*${len0}
variable delta equal 0.02*13.6112790951766
variable deltaxy equal ${up}*xy
variable deltaxy equal 0.02*xy
variable deltaxz equal ${up}*xz
variable deltaxz equal 0.02*xz
variable deltayz equal ${up}*yz
variable deltayz equal 0.02*yz
if "${dir} == 1" then    "change_box all x delta 0 ${delta} xy delta ${deltaxy} xz delta ${deltaxz} remap units box"
if "${dir} == 2" then    "change_box all y delta 0 ${delta} yz delta ${deltayz} remap units box"
if "${dir} == 3" then    "change_box all z delta 0 ${delta} remap units box"
if "${dir} == 4" then    "change_box all yz delta ${delta} remap units box"
if "${dir} == 5" then    "change_box all xz delta ${delta} remap units box"
if "${dir} == 6" then    "change_box all xy delta ${delta} remap units box"
change_box all xy delta ${delta} remap units box
change_box all xy delta 0.272225581903532 remap units box
Changing box ...
  triclinic box = (-0.12771686 -0.089724548 -0.11678381) to (14.87645 13.521555 16.726356) with tilt (-6.00777 -1.018878 -1.8867226)

# Relax atoms positions

minimize ${etol} ${ftol} ${maxiter} ${maxeval}
minimize 0 ${ftol} ${maxiter} ${maxeval}
minimize 0 1e-10 ${maxiter} ${maxeval}
minimize 0 1e-10 100000 ${maxeval}
minimize 0 1e-10 100000 100000
Generated 6 of 6 mixed pair_coeff terms from arithmetic mixing rule
Neighbor list info ...
  update: every = 1 steps, delay = 0 steps, check = yes
  max neighbors/atom: 2000, page size: 100000
  master list distance cutoff = 7
  ghost atom cutoff = 7
  binsize = 3.5, bins = 7 5 5
  1 neighbor lists, perpetual/occasional/extra = 1 0 0
  (1) pair lj/cut, perpetual
      attributes: half, newton on
      pair build: half/bin/newton/tri
      stencil: half/bin/3d/tri
      bin: standard
WARNING: Inconsistent image flags
For more information see https://docs.lammps.org/err0027 (src/domain.cpp:1052)
Per MPI rank memory allocation (min/avg/max) = 17.48 | 17.48 | 17.48 Mbytes
   Step          Temp          E_pair         E_mol          TotEng         Press     
    250264   306.92185     -342.88523      276.69689      180.82811      2997.3371    
    250297   306.92185     -358.01063      200.69269      89.698511      1411.1714    
Loop time of 0.0196413 on 1 procs for 33 steps with 271 atoms

100.0% CPU use with 1 MPI tasks x 1 OpenMP threads

Minimization stats:
  Stopping criterion = linesearch alpha is zero
  Energy initial, next-to-last, final = 
     -66.1883388379271  -157.317939835901  -157.317939835901
  Force two-norm initial, final = 156.55057 15.178779
  Force max component initial, final = 15.94943 2.2233193
  Final line search alpha, max atom move = 5.013159e-11 1.1145853e-10
  Iterations, force evaluations = 33 121

MPI task timing breakdown:
Section |  min time  |  avg time  |  max time  |%varavg| %total
---------------------------------------------------------------
Pair    | 0.014136   | 0.014136   | 0.014136   |   0.0 | 71.97
Bond    | 0.0045451  | 0.0045451  | 0.0045451  |   0.0 | 23.14
Neigh   | 0          | 0          | 0          |   0.0 |  0.00
Comm    | 0.00054715 | 0.00054715 | 0.00054715 |   0.0 |  2.79
Output  | 0          | 0          | 0          |   0.0 |  0.00
Modify  | 0          | 0          | 0          |   0.0 |  0.00
Other   |            | 0.0004129  |            |       |  2.10

Nlocal:            271 ave         271 max         271 min
Histogram: 1 0 0 0 0 0 0 0 0 0
Nghost:           1745 ave        1745 max        1745 min
Histogram: 1 0 0 0 0 0 0 0 0 0
Neighs:          14326 ave       14326 max       14326 min
Histogram: 1 0 0 0 0 0 0 0 0 0

Total # of neighbors = 14326
Ave neighs/atom = 52.863469
Ave special neighs/atom = 6.2140221
Neighbor list builds = 0
Dangerous builds = 0

# Obtain new stress tensor

variable tmp equal pe
variable e1 equal ${tmp}
variable e1 equal -157.317939835901
variable tmp equal press
variable p1 equal ${tmp}
variable p1 equal 1411.17135664465
variable tmp equal pxx
variable pxx1 equal ${tmp}
variable pxx1 equal -1178.33981106083
variable tmp equal pyy
variable pyy1 equal ${tmp}
variable pyy1 equal 2915.21521512376
variable tmp equal pzz
variable pzz1 equal ${tmp}
variable pzz1 equal 2496.63866587102
variable tmp equal pxy
variable pxy1 equal ${tmp}
variable pxy1 equal -2343.24908804239
variable tmp equal pxz
variable pxz1 equal ${tmp}
variable pxz1 equal -1247.94164775033
variable tmp equal pyz
variable pyz1 equal ${tmp}
variable pyz1 equal 263.299159911541

# Compute elastic constant from pressure tensor

variable C1pos equal ${d1}
variable C1pos equal 22.9690958142402
variable C2pos equal ${d2}
variable C2pos equal -1.68139989599665
variable C3pos equal ${d3}
variable C3pos equal 2.6468868052441
variable C4pos equal ${d4}
variable C4pos equal -0.10220678137664
variable C5pos equal ${d5}
variable C5pos equal -4.347700736904
variable C6pos equal ${d6}
variable C6pos equal 12.2432987394438

# Combine positive and negative

variable C1${dir} equal 0.5*(${C1neg}+${C1pos})
variable C16 equal 0.5*(${C1neg}+${C1pos})
variable C16 equal 0.5*(-19.6540588314031+${C1pos})
variable C16 equal 0.5*(-19.6540588314031+22.9690958142402)
variable C2${dir} equal 0.5*(${C2neg}+${C2pos})
variable C26 equal 0.5*(${C2neg}+${C2pos})
variable C26 equal 0.5*(-4.13542245423785+${C2pos})
variable C26 equal 0.5*(-4.13542245423785+-1.68139989599665)
variable C3${dir} equal 0.5*(${C3neg}+${C3pos})
variable C36 equal 0.5*(${C3neg}+${C3pos})
variable C36 equal 0.5*(-3.7126301764404+${C3pos})
variable C36 equal 0.5*(-3.7126301764404+2.6468868052441)
variable C4${dir} equal 0.5*(${C4neg}+${C4pos})
variable C46 equal 0.5*(${C4neg}+${C4pos})
variable C46 equal 0.5*(2.54045303928318+${C4pos})
variable C46 equal 0.5*(2.54045303928318+-0.10220678137664)
variable C5${dir} equal 0.5*(${C5neg}+${C5pos})
variable C56 equal 0.5*(${C5neg}+${C5pos})
variable C56 equal 0.5*(9.6906216443135+${C5pos})
variable C56 equal 0.5*(9.6906216443135+-4.347700736904)
variable C6${dir} equal 0.5*(${C6neg}+${C6pos})
variable C66 equal 0.5*(${C6neg}+${C6pos})
variable C66 equal 0.5*(12.9706932980746+${C6pos})
variable C66 equal 0.5*(12.9706932980746+12.2432987394438)

# Delete dir to make sure it is not reused

variable dir delete

# Output final values

variable C11all equal ${C11}
variable C11all equal 41.4019729708808
variable C22all equal ${C22}
variable C22all equal 33.1218255768725
variable C33all equal ${C33}
variable C33all equal 38.0137953421411

variable C12all equal 0.5*(${C12}+${C21})
variable C12all equal 0.5*(11.0621354236462+${C21})
variable C12all equal 0.5*(11.0621354236462+9.89602997542514)
variable C13all equal 0.5*(${C13}+${C31})
variable C13all equal 0.5*(14.1544456469875+${C31})
variable C13all equal 0.5*(14.1544456469875+13.5083671884749)
variable C23all equal 0.5*(${C23}+${C32})
variable C23all equal 0.5*(12.0029559047522+${C32})
variable C23all equal 0.5*(12.0029559047522+13.0781634219355)

variable C44all equal ${C44}
variable C44all equal 13.3518536844682
variable C55all equal ${C55}
variable C55all equal 15.4764602358003
variable C66all equal ${C66}
variable C66all equal 12.6069960187592

variable C14all equal 0.5*(${C14}+${C41})
variable C14all equal 0.5*(-1.7485844663449+${C41})
variable C14all equal 0.5*(-1.7485844663449+-1.75898442167848)
variable C15all equal 0.5*(${C15}+${C51})
variable C15all equal 0.5*(-2.6525359225571+${C51})
variable C15all equal 0.5*(-2.6525359225571+-1.76017472601208)
variable C16all equal 0.5*(${C16}+${C61})
variable C16all equal 0.5*(1.65751849141855+${C61})
variable C16all equal 0.5*(1.65751849141855+1.55011479979804)

variable C24all equal 0.5*(${C24}+${C42})
variable C24all equal 0.5*(0.904676681685476+${C42})
variable C24all equal 0.5*(0.904676681685476+2.18826272516579)
variable C25all equal 0.5*(${C25}+${C52})
variable C25all equal 0.5*(0.982438521426349+${C52})
variable C25all equal 0.5*(0.982438521426349+-0.92372388244688)
variable C26all equal 0.5*(${C26}+${C62})
variable C26all equal 0.5*(-2.90841117511725+${C62})
variable C26all equal 0.5*(-2.90841117511725+-4.34351506518003)

variable C34all equal 0.5*(${C34}+${C43})
variable C34all equal 0.5*(3.07392615265403+${C43})
variable C34all equal 0.5*(3.07392615265403+3.77468612950261)
variable C35all equal 0.5*(${C35}+${C53})
variable C35all equal 0.5*(2.17783777679742+${C53})
variable C35all equal 0.5*(2.17783777679742+1.78871840654228)
variable C36all equal 0.5*(${C36}+${C63})
variable C36all equal 0.5*(-0.53287168559815+${C63})
variable C36all equal 0.5*(-0.53287168559815+-1.87872470406784)

variable C45all equal 0.5*(${C45}+${C54})
variable C45all equal 0.5*(-1.90953722088415+${C54})
variable C45all equal 0.5*(-1.90953722088415+-1.46535789752326)
variable C46all equal 0.5*(${C46}+${C64})
variable C46all equal 0.5*(1.21912312895327+${C64})
variable C46all equal 0.5*(1.21912312895327+1.11510258788033)
variable C56all equal 0.5*(${C56}+${C65})
variable C56all equal 0.5*(2.67146045370475+${C65})
variable C56all equal 0.5*(2.67146045370475+2.20855328966607)

# Average moduli for cubic crystals

variable C11cubic equal (${C11all}+${C22all}+${C33all})/3.0
variable C11cubic equal (41.4019729708808+${C22all}+${C33all})/3.0
variable C11cubic equal (41.4019729708808+33.1218255768725+${C33all})/3.0
variable C11cubic equal (41.4019729708808+33.1218255768725+38.0137953421411)/3.0
variable C12cubic equal (${C12all}+${C13all}+${C23all})/3.0
variable C12cubic equal (10.4790826995357+${C13all}+${C23all})/3.0
variable C12cubic equal (10.4790826995357+13.8314064177312+${C23all})/3.0
variable C12cubic equal (10.4790826995357+13.8314064177312+12.5405596633438)/3.0
variable C44cubic equal (${C44all}+${C55all}+${C66all})/3.0
variable C44cubic equal (13.3518536844682+${C55all}+${C66all})/3.0
variable C44cubic equal (13.3518536844682+15.4764602358003+${C66all})/3.0
variable C44cubic equal (13.3518536844682+15.4764602358003+12.6069960187592)/3.0

variable bulkmodulus equal (${C11cubic}+2*${C12cubic})/3.0
variable bulkmodulus equal (37.5125312966315+2*${C12cubic})/3.0
variable bulkmodulus equal (37.5125312966315+2*12.2836829268702)/3.0
variable shearmodulus1 equal ${C44cubic}
variable shearmodulus1 equal 13.8117699796759
variable shearmodulus2 equal (${C11cubic}-${C12cubic})/2.0
variable shearmodulus2 equal (37.5125312966315-${C12cubic})/2.0
variable shearmodulus2 equal (37.5125312966315-12.2836829268702)/2.0
variable poissonratio equal 1.0/(1.0+${C11cubic}/${C12cubic})
variable poissonratio equal 1.0/(1.0+37.5125312966315/${C12cubic})
variable poissonratio equal 1.0/(1.0+37.5125312966315/12.2836829268702)

print "Elastic Constant 1 1 = ${C11all}"
Elastic Constant 1 1 = 41.4019729708808
print "Elastic Constant 2 2 = ${C22all}"
Elastic Constant 2 2 = 33.1218255768725
print "Elastic Constant 3 3 = ${C33all}"
Elastic Constant 3 3 = 38.0137953421411

print "Elastic Constant 1 2 = ${C12all}"
Elastic Constant 1 2 = 10.4790826995357
print "Elastic Constant 1 3 = ${C13all}"
Elastic Constant 1 3 = 13.8314064177312
print "Elastic Constant 2 3 = ${C23all}"
Elastic Constant 2 3 = 12.5405596633438

print "Elastic Constant 4 4 = ${C44all}"
Elastic Constant 4 4 = 13.3518536844682
print "Elastic Constant 5 5 = ${C55all}"
Elastic Constant 5 5 = 15.4764602358003
print "Elastic Constant 6 6 = ${C66all}"
Elastic Constant 6 6 = 12.6069960187592

print "Elastic Constant 1 4 = ${C14all}"
Elastic Constant 1 4 = -1.75378444401169
print "Elastic Constant 1 5 = ${C15all}"
Elastic Constant 1 5 = -2.20635532428459
print "Elastic Constant 1 6 = ${C16all}"
Elastic Constant 1 6 = 1.60381664560829

print "Elastic Constant 2 4 = ${C24all}"
Elastic Constant 2 4 = 1.54646970342563
print "Elastic Constant 2 5 = ${C25all}"
Elastic Constant 2 5 = 0.0293573194897345
print "Elastic Constant 2 6 = ${C26all}"
Elastic Constant 2 6 = -3.62596312014864

print "Elastic Constant 3 4 = ${C34all}"
Elastic Constant 3 4 = 3.42430614107832
print "Elastic Constant 3 5 = ${C35all}"
Elastic Constant 3 5 = 1.98327809166985
print "Elastic Constant 3 6 = ${C36all}"
Elastic Constant 3 6 = -1.20579819483299

print "Elastic Constant 4 5 = ${C45all}"
Elastic Constant 4 5 = -1.6874475592037
print "Elastic Constant 4 6 = ${C46all}"
Elastic Constant 4 6 = 1.1671128584168
print "Elastic Constant 5 6 = ${C56all}"
Elastic Constant 5 6 = 2.44000687168541

print "Bulk Modulus = ${bulkmodulus} ${cunits}"
Bulk Modulus = 20.693299050124 GPa
print "Shear Modulus 1 = ${shearmodulus1} ${cunits}"
Shear Modulus 1 = 13.8117699796759 GPa
print "Shear Modulus 2 = ${shearmodulus2} ${cunits}"
Shear Modulus 2 = 12.6144241848807 GPa
print "Poisson Ratio = ${poissonratio}"
Poisson Ratio = 0.246679052181297

variable rho equal density
print "density (g/cm^3) = ${rho}"
density (g/cm^3) = 1.46636828225223
Total wall time: 0:00:43
