units           real
atom_style      full
boundary        p p p

pair_style      lj/cut 5.000
bond_style      harmonic
angle_style     hybrid fourier cosine/periodic
dihedral_style  harmonic

pair_modify     tail yes mix arithmetic
special_bonds   lj/coul 0.0 0.0 1.0
dielectric      1.0
box tilt        large

The 'box' command has been removed and will be ignored

read_data       ./dat/data.333-HD-100C-11-VASP
Reading data file ...
  triclinic box = (0 0 0) to (15.03715 13.454262 17.607396) with tilt (-7.493115 -0.158529 0.080717)
WARNING: Triclinic box skew is large. LAMMPS will run inefficiently. (src/domain.cpp:221)
  1 by 1 by 1 MPI processor grid
  reading atoms ...
  366 atoms
  scanning bonds ...
  4 = max bonds/atom
  scanning angles ...
  6 = max angles/atom
  scanning dihedrals ...
  30 = max dihedrals/atom
  triclinic box = (0 0 0) to (15.03715 13.454262 17.607396) with tilt (-7.493115 -0.158529 0.080717)
WARNING: Triclinic box skew is large. LAMMPS will run inefficiently. (src/domain.cpp:221)
  1 by 1 by 1 MPI processor grid
  reading bonds ...
  408 bonds
  reading angles ...
  792 angles
  reading dihedrals ...
  1080 dihedrals
Finding 1-2 1-3 1-4 neighbors ...
  special bond factors lj:    0        0        1       
  special bond factors coul:  0        0        1       
     4 = max # of 1-2 neighbors
    10 = max # of 1-3 neighbors
    14 = max # of special neighbors
  special bonds CPU = 0.000 seconds
  read_data CPU = 0.008 seconds

#### Atom Groupings ####
group           fram     id   1:366
366 atoms in group fram
#### END Atom Groupings ####

compute am all property/atom mass
dump        atom_pos all extxyz 100 ./output/333-HD-100C-11-VASP.lammpstrj
dump_modify atom_pos element Si O C H mass yes
thermo          1000
thermo_style    custom step temp pe ke etotal press vol density

variable up equal 2e-2
variable cfac equal 1.0e-4
variable cunits string GPa

# Define minimization parameters
variable etol equal 0.0
variable ftol equal 1.0e-10
variable maxiter equal 100000
variable maxeval equal 100000
variable dmax equal 1.0e-2

variable temp equal 300.0
variable thermal_damp index 100.0
variable pressure_damp index 500.0

fix relax all box/relax aniso 0.0 vmax 0.001
unfix relax
minimize ${etol} ${ftol} ${maxiter} ${maxeval}
minimize 0 ${ftol} ${maxiter} ${maxeval}
minimize 0 1e-10 ${maxiter} ${maxeval}
minimize 0 1e-10 100000 ${maxeval}
minimize 0 1e-10 100000 100000
Generated 6 of 6 mixed pair_coeff terms from arithmetic mixing rule
Neighbor list info ...
  update: every = 1 steps, delay = 0 steps, check = yes
  max neighbors/atom: 2000, page size: 100000
  master list distance cutoff = 7
  ghost atom cutoff = 7
  binsize = 3.5, bins = 7 4 6
  1 neighbor lists, perpetual/occasional/extra = 1 0 0
  (1) pair lj/cut, perpetual
      attributes: half, newton on
      pair build: half/bin/newton/tri
      stencil: half/bin/3d/tri
      bin: standard
WARNING: Inconsistent image flags
For more information see https://docs.lammps.org/err0027 (src/domain.cpp:1052)
Per MPI rank memory allocation (min/avg/max) = 19.54 | 19.54 | 19.54 Mbytes
   Step          Temp          PotEng         KinEng         TotEng         Press          Volume        Density    
         0   0              2139.4421      0              2139.4421      154145.14      3562.2184      2.0059661    
        74   0              575.12935      0              575.12935      19225.795      3562.2184      2.0059661    
Loop time of 0.0510635 on 1 procs for 74 steps with 366 atoms

100.0% CPU use with 1 MPI tasks x 1 OpenMP threads

Minimization stats:
  Stopping criterion = linesearch alpha is zero
  Energy initial, next-to-last, final = 
      2139.44213507272   575.129347557588   575.129347557588
  Force two-norm initial, final = 941.69298 27.963879
  Force max component initial, final = 98.365125 3.737912
  Final line search alpha, max atom move = 1.5402136e-11 5.7571828e-11
  Iterations, force evaluations = 74 197

MPI task timing breakdown:
Section |  min time  |  avg time  |  max time  |%varavg| %total
---------------------------------------------------------------
Pair    | 0.036951   | 0.036951   | 0.036951   |   0.0 | 72.36
Bond    | 0.0092398  | 0.0092398  | 0.0092398  |   0.0 | 18.09
Neigh   | 0.0024271  | 0.0024271  | 0.0024271  |   0.0 |  4.75
Comm    | 0.0011141  | 0.0011141  | 0.0011141  |   0.0 |  2.18
Output  | 0          | 0          | 0          |   0.0 |  0.00
Modify  | 0          | 0          | 0          |   0.0 |  0.00
Other   |            | 0.001331   |            |       |  2.61

Nlocal:            366 ave         366 max         366 min
Histogram: 1 0 0 0 0 0 0 0 0 0
Nghost:           2398 ave        2398 max        2398 min
Histogram: 1 0 0 0 0 0 0 0 0 0
Neighs:          25782 ave       25782 max       25782 min
Histogram: 1 0 0 0 0 0 0 0 0 0

Total # of neighbors = 25782
Ave neighs/atom = 70.442623
Ave special neighs/atom = 6.557377
Neighbor list builds = 1
Dangerous builds = 0

# Generating the full routine as described in the paper for UFF
fix nvt_relax   all nvt temp 300 300 ${thermal_damp}
fix nvt_relax   all nvt temp 300 300 100.0
run 100000      # 100 picoseconds
Generated 6 of 6 mixed pair_coeff terms from arithmetic mixing rule
WARNING: Inconsistent image flags
For more information see https://docs.lammps.org/err0027 (src/domain.cpp:1052)
Per MPI rank memory allocation (min/avg/max) = 19.49 | 19.49 | 19.49 Mbytes
   Step          Temp          PotEng         KinEng         TotEng         Press          Volume        Density    
        74   0              575.12935      0              575.12935      19225.795      3562.2184      2.0059661    
      1000   210.28785      768.43165      228.79227      997.22392      23941.89       3562.2184      2.0059661    
      2000   316.26861      863.17762      344.09888      1207.2765      32833.747      3562.2184      2.0059661    
      3000   323.07153      815.2934       351.50042      1166.7938      25018.765      3562.2184      2.0059661    
      4000   279.76625      863.26284      304.38447      1167.6473      19743.479      3562.2184      2.0059661    
      5000   311.06048      839.12957      338.43245      1177.562       21770.793      3562.2184      2.0059661    
      6000   284.83025      843.85897      309.89408      1153.753       20545.974      3562.2184      2.0059661    
      7000   298.72877      860.90208      325.01561      1185.9177      26160.128      3562.2184      2.0059661    
      8000   313.65899      838.66553      341.25962      1179.9252      25024.83       3562.2184      2.0059661    
      9000   303.52759      845.46496      330.2367       1175.7017      19924.567      3562.2184      2.0059661    
     10000   296.24614      831.71529      322.31452      1154.0298      22174.048      3562.2184      2.0059661    
     11000   297.31188      825.51495      323.47404      1148.989       21993.09       3562.2184      2.0059661    
     12000   304.84644      814.64617      331.67161      1146.3178      22459.467      3562.2184      2.0059661    
     13000   304.07903      849.50801      330.83666      1180.3447      21358.963      3562.2184      2.0059661    
     14000   295.14287      834.72687      321.11416      1155.841       19187.518      3562.2184      2.0059661    
     15000   319.00897      845.75901      347.08037      1192.8394      24145.54       3562.2184      2.0059661    
     16000   289.51631      846.70217      314.99249      1161.6947      25516.35       3562.2184      2.0059661    
     17000   306.07654      837.94528      333.00995      1170.9552      23288.452      3562.2184      2.0059661    
     18000   300.50848      831.4537       326.95193      1158.4056      23209.41       3562.2184      2.0059661    
     19000   291.06305      828.78465      316.67534      1145.46        18409.152      3562.2184      2.0059661    
     20000   296.77688      858.35909      322.89196      1181.251       26927.927      3562.2184      2.0059661    
     21000   297.16658      843.30875      323.31595      1166.6247      26042.434      3562.2184      2.0059661    
     22000   296.86254      842.99041      322.98516      1165.9756      22836.044      3562.2184      2.0059661    
     23000   321.97376      869.9687       350.30606      1220.2748      28873.558      3562.2184      2.0059661    
     24000   298.95822      844.32444      325.26525      1169.5897      25214.987      3562.2184      2.0059661    
     25000   283.55154      814.03032      308.50285      1122.5332      26797.675      3562.2184      2.0059661    
     26000   292.04238      867.6397       317.74084      1185.3805      24652.994      3562.2184      2.0059661    
     27000   298.36513      829.64783      324.61997      1154.2678      23761.153      3562.2184      2.0059661    
     28000   298.07404      857.7844       324.30326      1182.0877      23307.165      3562.2184      2.0059661    
     29000   301.10423      834.72307      327.6001       1162.3232      18022.919      3562.2184      2.0059661    
     30000   309.8212       851.35863      337.08413      1188.4428      25191.03       3562.2184      2.0059661    
     31000   305.21803      832.2875       332.0759       1164.3634      24084.13       3562.2184      2.0059661    
     32000   321.67026      835.76945      349.97585      1185.7453      18338.091      3562.2184      2.0059661    
     33000   301.90489      842.88251      328.47122      1171.3537      23347.134      3562.2184      2.0059661    
     34000   293.1964       818.17053      318.99641      1137.1669      19680.221      3562.2184      2.0059661    
     35000   302.85402      859.22992      329.50386      1188.7338      23408.732      3562.2184      2.0059661    
     36000   312.82269      857.15073      340.34974      1197.5005      21788.217      3562.2184      2.0059661    
     37000   298.021        842.68591      324.24556      1166.9315      23120.655      3562.2184      2.0059661    
     38000   315.21233      868.09745      342.94965      1211.0471      22799.143      3562.2184      2.0059661    
     39000   321.62161      829.35225      349.92292      1179.2752      23683.663      3562.2184      2.0059661    
     40000   285.4226       823.66543      310.53855      1134.204       14948.762      3562.2184      2.0059661    
     41000   290.66807      877.81052      316.2456       1194.0561      25888.342      3562.2184      2.0059661    
     42000   306.38722      834.09123      333.34797      1167.4392      28152.578      3562.2184      2.0059661    
     43000   331.1684       836.4831       360.30979      1196.7929      22323.14       3562.2184      2.0059661    
     44000   290.79086      859.42951      316.3792       1175.8087      18567.914      3562.2184      2.0059661    
     45000   291.88892      823.54723      317.57388      1141.1211      21466.91       3562.2184      2.0059661    
     46000   303.76289      847.78379      330.49271      1178.2765      22070.07       3562.2184      2.0059661    
     47000   291.0158       837.26935      316.62393      1153.8933      22543.301      3562.2184      2.0059661    
     48000   285.63879      866.09579      310.77377      1176.8696      21185.352      3562.2184      2.0059661    
     49000   298.82733      824.42085      325.12284      1149.5437      18599.718      3562.2184      2.0059661    
     50000   288.3773       846.34685      313.75326      1160.1001      25163.55       3562.2184      2.0059661    
     51000   311.24819      827.52875      338.63668      1166.1654      18169.929      3562.2184      2.0059661    
     52000   309.55646      836.33017      336.79609      1173.1263      21522.739      3562.2184      2.0059661    
     53000   296.25724      874.19517      322.32659      1196.5218      24532.036      3562.2184      2.0059661    
     54000   268.71838      851.43409      292.36444      1143.7985      23011.136      3562.2184      2.0059661    
     55000   303.19156      837.72058      329.87111      1167.5917      21221.326      3562.2184      2.0059661    
     56000   287.2862       854.77835      312.56614      1167.3445      20750.362      3562.2184      2.0059661    
     57000   275.97189      847.11622      300.25622      1147.3724      21599.796      3562.2184      2.0059661    
     58000   309.24473      857.05727      336.45693      1193.5142      27493.008      3562.2184      2.0059661    
     59000   306.23582      847.62243      333.18325      1180.8057      20850.32       3562.2184      2.0059661    
     60000   288.26925      829.07795      313.6357       1142.7136      25052.544      3562.2184      2.0059661    
     61000   301.7394       840.53882      328.29116      1168.83        28424.952      3562.2184      2.0059661    
     62000   304.68889      848.3438       331.50019      1179.844       33315.337      3562.2184      2.0059661    
     63000   300.536        820.24935      326.98187      1147.2312      18403.667      3562.2184      2.0059661    
     64000   312.31737      854.13364      339.79995      1193.9336      25860.754      3562.2184      2.0059661    
     65000   293.89222      828.7295       319.75346      1148.483       26332.678      3562.2184      2.0059661    
     66000   314.77543      852.06421      342.4743       1194.5385      19516.84       3562.2184      2.0059661    
     67000   304.02641      846.62873      330.77942      1177.4081      17986.234      3562.2184      2.0059661    
     68000   296.71571      855.22626      322.82541      1178.0517      22069.458      3562.2184      2.0059661    
     69000   304.63729      832.75215      331.44405      1164.1962      20180.691      3562.2184      2.0059661    
     70000   306.58534      860.69912      333.56353      1194.2626      23710.489      3562.2184      2.0059661    
     71000   288.40058      864.78233      313.77858      1178.5609      25463.639      3562.2184      2.0059661    
     72000   305.68132      812.74388      332.57995      1145.3238      26119.967      3562.2184      2.0059661    
     73000   293.88317      859.33787      319.74361      1179.0815      20609.951      3562.2184      2.0059661    
     74000   288.57951      829.56934      313.97326      1143.5426      24701.514      3562.2184      2.0059661    
     75000   310.1448       842.2638       337.4362       1179.7         21089.971      3562.2184      2.0059661    
     76000   278.51716      830.51566      303.02546      1133.5411      26738.894      3562.2184      2.0059661    
     77000   298.18654      842.99666      324.42566      1167.4223      24884.217      3562.2184      2.0059661    
     78000   297.05128      864.39912      323.1905       1187.5896      22806.22       3562.2184      2.0059661    
     79000   287.64414      852.79453      312.95558      1165.7501      22634.219      3562.2184      2.0059661    
     80000   302.68743      839.57026      329.32261      1168.8929      21068.694      3562.2184      2.0059661    
     81000   282.55324      838.12231      307.4167       1145.539       20954.598      3562.2184      2.0059661    
     82000   290.91342      855.04473      316.51254      1171.5573      23906.458      3562.2184      2.0059661    
     83000   294.61205      851.30539      320.53664      1171.842       23065.259      3562.2184      2.0059661    
     84000   283.95755      825.38496      308.94459      1134.3295      25872.267      3562.2184      2.0059661    
     85000   300.6043       851.46014      327.05618      1178.5163      26002.883      3562.2184      2.0059661    
     86000   279.96752      852.29194      304.60344      1156.8954      23960.687      3562.2184      2.0059661    
     87000   279.64823      848.75863      304.25606      1153.0147      21604          3562.2184      2.0059661    
     88000   290.36985      861.15333      315.92114      1177.0745      21276.483      3562.2184      2.0059661    
     89000   309.29334      847.51785      336.50981      1184.0277      21718.69       3562.2184      2.0059661    
     90000   306.54844      856.94546      333.52337      1190.4688      29905.789      3562.2184      2.0059661    
     91000   295.83403      859.23421      321.86614      1181.1003      22882.705      3562.2184      2.0059661    
     92000   294.04018      827.61692      319.91444      1147.5314      27450.003      3562.2184      2.0059661    
     93000   292.74604      862.54417      318.50642      1181.0506      17219.126      3562.2184      2.0059661    
     94000   302.59501      826.16278      329.22206      1155.3848      17151.189      3562.2184      2.0059661    
     95000   285.16334      841.2569       310.25648      1151.5134      19091.854      3562.2184      2.0059661    
     96000   296.66123      862.37949      322.76614      1185.1456      21894.265      3562.2184      2.0059661    
     97000   263.024        828.46985      286.16897      1114.6388      20548.8        3562.2184      2.0059661    
     98000   312.49501      836.3713       339.99322      1176.3645      23888.158      3562.2184      2.0059661    
     99000   299.7388       845.38231      326.11451      1171.4968      20128.961      3562.2184      2.0059661    
    100000   271.47493      836.6502       295.36355      1132.0138      20689.418      3562.2184      2.0059661    
    100074   283.37217      832.87486      308.30769      1141.1826      24075.026      3562.2184      2.0059661    
Loop time of 23.6969 on 1 procs for 100000 steps with 366 atoms

Performance: 364.604 ns/day, 0.066 hours/ns, 4219.957 timesteps/s, 1.545 Matom-step/s
99.8% CPU use with 1 MPI tasks x 1 OpenMP threads

MPI task timing breakdown:
Section |  min time  |  avg time  |  max time  |%varavg| %total
---------------------------------------------------------------
Pair    | 15.544     | 15.544     | 15.544     |   0.0 | 65.60
Bond    | 4.0252     | 4.0252     | 4.0252     |   0.0 | 16.99
Neigh   | 2.5843     | 2.5843     | 2.5843     |   0.0 | 10.91
Comm    | 0.55272    | 0.55272    | 0.55272    |   0.0 |  2.33
Output  | 0.51869    | 0.51869    | 0.51869    |   0.0 |  2.19
Modify  | 0.33864    | 0.33864    | 0.33864    |   0.0 |  1.43
Other   |            | 0.133      |            |       |  0.56

Nlocal:            366 ave         366 max         366 min
Histogram: 1 0 0 0 0 0 0 0 0 0
Nghost:           2387 ave        2387 max        2387 min
Histogram: 1 0 0 0 0 0 0 0 0 0
Neighs:          25691 ave       25691 max       25691 min
Histogram: 1 0 0 0 0 0 0 0 0 0

Total # of neighbors = 25691
Ave neighs/atom = 70.193989
Ave special neighs/atom = 6.557377
Neighbor list builds = 1131
Dangerous builds = 0
unfix           nvt_relax

fix npt_relax   all npt temp 300 300 ${thermal_damp} iso 0 0 ${pressure_damp}
fix npt_relax   all npt temp 300 300 100.0 iso 0 0 ${pressure_damp}
fix npt_relax   all npt temp 300 300 100.0 iso 0 0 500.0
run 100000      # 100 picoseconds
Generated 6 of 6 mixed pair_coeff terms from arithmetic mixing rule
WARNING: Inconsistent image flags
For more information see https://docs.lammps.org/err0027 (src/domain.cpp:1052)
Per MPI rank memory allocation (min/avg/max) = 19.51 | 19.51 | 19.51 Mbytes
   Step          Temp          PotEng         KinEng         TotEng         Press          Volume        Density    
    100074   283.37217      832.87486      308.30769      1141.1826      24075.026      3562.2184      2.0059661    
    101000   299.06497      838.71001      325.38139      1164.0914     -5471.176       3675.9919      1.9438806    
    102000   291.83339      820.59736      317.51347      1138.1108      2163.7448      3640.0679      1.9630649    
    103000   300.57961      849.7278       327.02931      1176.7571      2768.2966      3653.7438      1.9557172    
    104000   292.05568      845.43698      317.75531      1163.1923     -2568.5421      3691.0472      1.9359518    
    105000   282.24711      812.75778      307.08363      1119.8414     -4029.1679      3673.512       1.9451929    
    106000   304.28027      842.22261      331.05562      1173.2782     -774.85449      3652.2492      1.9565175    
    107000   293.46106      821.56673      319.28436      1140.8511      1684.519       3659.7128      1.9525274    
    108000   313.47954      861.73945      341.06439      1202.8038      1949.0482      3662.9928      1.950779     
    109000   291.65222      840.41174      317.31635      1157.7281     -98.361248      3658.947       1.952936     
    110000   309.94143      845.32452      337.21493      1182.5394     -2841.3568      3678.6675      1.9424668    
    111000   276.63089      812.80565      300.97322      1113.7789      4565.0686      3643.596       1.9611641    
    112000   302.05156      838.05942      328.63079      1166.6902      5074.9442      3644.1677      1.9608564    
    113000   292.95457      840.11696      318.7333       1158.8503      488.24941      3668.3461      1.9479322    
    114000   294.54888      834.48704      320.46791      1154.9549      1223.7348      3651.8465      1.9567333    
    115000   315.31376      880.29982      343.06         1223.3598      2117.4341      3686.0624      1.9385699    
    116000   295.86734      830.62059      321.90239      1152.523       8208.5489      3638.1976      1.964074     
    117000   321.5636       830.20398      349.8598       1180.0638     -4598.1199      3666.5678      1.9488769    
    118000   285.9182       834.36377      311.07776      1145.4415     -489.51832      3669.3544      1.9473969    
    119000   299.50449      858.09138      325.85959      1183.951      -220.15995      3657.6113      1.9536492    
    120000   295.78296      833.6797       321.81058      1155.4903     -194.64436      3663.026       1.9507613    
    121000   330.56193      825.21736      359.64995      1184.8673     -1.1418045      3642.8541      1.9615635    
    122000   290.55465      835.66028      316.1222       1151.7825     -1545.4906      3650.2733      1.9575765    
    123000   305.5806       841.46652      332.47037      1173.9369      4982.348       3645.5417      1.9601173    
    124000   274.60953      834.84711      298.77398      1133.6211     -3170.853       3658.9631      1.9529275    
    125000   297.35422      849.07279      323.52011      1172.5929      5694.1773      3628.6941      1.9692179    
    126000   281.12258      826.00104      305.86015      1131.8612     -3530.6789      3665.9762      1.9491914    
    127000   312.28673      842.3205       339.76661      1182.0871     -6915.3719      3677.2319      1.9432251    
    128000   307.75579      828.30447      334.83697      1163.1414      6621.0499      3641.9336      1.9620592    
    129000   305.04459      832.94386      331.88719      1164.831      -1749.9139      3653.4209      1.95589      
    130000   308.87846      862.88079      336.05843      1198.9392      3235.9735      3656.7884      1.9540889    
    131000   297.71446      832.77465      323.91204      1156.6867      8484.4735      3640.085       1.9630556    
    132000   299.61829      813.79067      325.9834       1139.7741      2715.7957      3663.5051      1.9505062    
    133000   311.81833      845.8463       339.25699      1185.1033      4563.1664      3641.0562      1.962532     
    134000   287.12153      811.29818      312.38698      1123.6852     -1891.1091      3667.7603      1.9482433    
    135000   301.14333      844.05486      327.64263      1171.6975      1155.4092      3657.4504      1.9537352    
    136000   326.34287      846.13732      355.05963      1201.197       710.27349      3652.5729      1.9563441    
    137000   298.22446      825.13143      324.46692      1149.5984      259.44322      3671.3272      1.9463505    
    138000   305.47098      861.11554      332.3511       1193.4666     -4094.9577      3682.3205      1.9405398    
    139000   301.47834      839.7138       328.00713      1167.7209      2675.9171      3650.3985      1.9575094    
    140000   300.19012      819.78285      326.60555      1146.3884      5470.7931      3652.3921      1.956441     
    141000   322.76449      843.58429      351.16636      1194.7507     -4307.9541      3663.2622      1.9506355    
    142000   304.43316      823.50207      331.22196      1154.724       728.37868      3643.7405      1.9610863    
    143000   297.35632      842.44284      323.52238      1165.9652     -6809.9786      3674.4598      1.9446912    
    144000   309.4275       850.0354       336.65578      1186.6912     -1100.4087      3669.5852      1.9472745    
    145000   288.10334      833.78116      313.45518      1147.2363      2485.3797      3670.4435      1.9468191    
    146000   282.19462      849.26777      307.02653      1156.2943     -4271.1588      3667.8581      1.9481914    
    147000   309.40761      834.00948      336.63414      1170.6436      471.82747      3647.8167      1.9588949    
    148000   299.18434      830.43326      325.51126      1155.9445      1928.6574      3648.3868      1.9585888    
    149000   306.39008      855.04182      333.35108      1188.3929     -487.11089      3675.2672      1.9442639    
    150000   295.71176      824.04277      321.73312      1145.7759     -5707.7318      3667.6423      1.948306     
    151000   309.29079      837.77807      336.50704      1174.2851      1347.905       3642.5528      1.9617257    
    152000   280.98785      859.44115      305.71356      1165.1547     -321.7547       3655.2466      1.9549131    
    153000   303.17575      857.43822      329.8539       1187.2921     -9130.6874      3704.1763      1.92909      
    154000   287.52022      834.36023      312.82075      1147.181       3303.0535      3639.3225      1.963467     
    155000   293.51638      817.83158      319.34455      1137.1761      8512.6776      3642.7771      1.9616049    
    156000   280.26963      863.71043      304.93214      1168.6426     -9079.5409      3702.9607      1.9297233    
    157000   292.7024       821.99552      318.45894      1140.4545      3036.7588      3660.6486      1.9520283    
    158000   311.7653       846.43715      339.19929      1185.6364      3329.8215      3654.2244      1.9554599    
    159000   296.40226      839.1294       322.48437      1161.6138      4472.6363      3659.1883      1.9528073    
    160000   281.36997      828.84069      306.12931      1134.97        4522.3189      3659.0865      1.9528616    
    161000   296.24351      858.26301      322.31166      1180.5747     -3070.4343      3668.211       1.9480039    
    162000   285.26113      827.31253      310.36288      1137.6754      1280.5295      3662.6187      1.9509783    
    163000   315.65933      828.12458      343.43599      1171.5606     -383.70662      3663.8327      1.9503318    
    164000   294.05138      823.57098      319.92663      1143.4976     -504.17049      3664.2893      1.9500888    
    165000   290.76502      856.21409      316.35108      1172.5652     -4630.0927      3669.6919      1.9472178    
    166000   296.58516      833.81237      322.68337      1156.4957     -6707.4085      3663.9776      1.9502547    
    167000   276.90312      859.2032       301.26939      1160.4726      2597.029       3662.206       1.9511981    
    168000   294.04658      849.74483      319.9214       1169.6662     -3108.9108      3669.5393      1.9472988    
    169000   297.66171      823.75358      323.85465      1147.6082     -3684.0442      3667.9266      1.948155     
    170000   301.88941      823.5274       328.45437      1151.9818     -494.47816      3674.3476      1.9447505    
    171000   295.10161      859.75744      321.06927      1180.8267     -2298.74        3652.3189      1.9564802    
    172000   295.47898      812.86224      321.47985      1134.3421      2554.9503      3665.8579      1.9492544    
    173000   302.40726      843.79654      329.01779      1172.8143     -1026.9745      3651.4202      1.9569617    
    174000   283.40277      838.99739      308.34098      1147.3384     -3251.7346      3692.0954      1.9354022    
    175000   301.83749      832.25267      328.39788      1160.6506      124.54397      3652.994       1.9561186    
    176000   312.07257      829.43949      339.5336       1168.9731      8181.4074      3645.8649      1.9599436    
    177000   297.68022      851.03173      323.87479      1174.9065      56.597979      3670.704       1.9466809    
    178000   286.2416       860.49783      311.42962      1171.9274      1079.2548      3664.8963      1.9497658    
    179000   274.5429       827.3769       298.70148      1126.0784      2595.5611      3650.53        1.9574389    
    180000   279.45979      862.68772      304.05104      1166.7388     -478.0017       3647.8561      1.9588737    
    181000   310.7798       859.77191      338.12707      1197.899      -3590.4776      3681.5795      1.9409304    
    182000   294.5454       836.66992      320.46412      1157.134       6828.3683      3649.9037      1.9577748    
    183000   303.53561      842.86176      330.24542      1173.1072      873.50451      3679.7689      1.9418854    
    184000   281.33243      869.43567      306.08847      1175.5241      1808.5492      3653.7862      1.9556945    
    185000   311.82233      843.44542      339.26134      1182.7068     -4611.509       3671.2914      1.9463694    
    186000   290.19873      832.20564      315.73497      1147.9406      2722.0599      3667.4719      1.9483965    
    187000   321.61854      833.60222      349.91958      1183.5218      3068.4783      3657.1822      1.9538784    
    188000   306.34366      819.82772      333.30057      1153.1283      296.65284      3675.3634      1.9442131    
    189000   288.94671      857.70007      314.37277      1172.0728     -3148.8513      3679.2498      1.9421594    
    190000   307.29468      873.59523      334.33528      1207.9305      6409.8977      3627.8818      1.9696588    
    191000   304.46831      831.85706      331.2602       1163.1173      220.00062      3668.287       1.9479636    
    192000   308.02577      873.99487      335.1307       1209.1256      3169.9912      3657.7925      1.9535525    
    193000   284.42607      842.17873      309.45433      1151.6331     -1835.2777      3663.9105      1.9502904    
    194000   280.21046      849.73583      304.86777      1154.6036     -3485.095       3675.9055      1.9439263    
    195000   304.39448      855.04355      331.17987      1186.2234      508.42074      3660.2597      1.9522357    
    196000   300.0376       849.44649      326.43961      1175.8861      485.01053      3676.3667      1.9436824    
    197000   291.9962       851.04322      317.6906       1168.7338     -1777.9076      3670.0916      1.9470057    
    198000   314.37775      847.86089      342.04163      1189.9025     -553.62121      3671.7445      1.9461293    
    199000   308.95334      837.1521       336.1399       1173.292       4726.0462      3646.4757      1.9596153    
    200000   299.7779       823.65333      326.15705      1149.8104     -3454.9484      3657.0684      1.9539392    
    200074   301.589        820.93529      328.12753      1149.0628     -702.2118       3652.6334      1.9563117    
Loop time of 27.1708 on 1 procs for 100000 steps with 366 atoms

Performance: 317.989 ns/day, 0.075 hours/ns, 3680.428 timesteps/s, 1.347 Matom-step/s
99.8% CPU use with 1 MPI tasks x 1 OpenMP threads

MPI task timing breakdown:
Section |  min time  |  avg time  |  max time  |%varavg| %total
---------------------------------------------------------------
Pair    | 16.171     | 16.171     | 16.171     |   0.0 | 59.52
Bond    | 5.5381     | 5.5381     | 5.5381     |   0.0 | 20.38
Neigh   | 3.3952     | 3.3952     | 3.3952     |   0.0 | 12.50
Comm    | 0.57136    | 0.57136    | 0.57136    |   0.0 |  2.10
Output  | 0.53865    | 0.53865    | 0.53865    |   0.0 |  1.98
Modify  | 0.80565    | 0.80565    | 0.80565    |   0.0 |  2.97
Other   |            | 0.1505     |            |       |  0.55

Nlocal:            366 ave         366 max         366 min
Histogram: 1 0 0 0 0 0 0 0 0 0
Nghost:           2350 ave        2350 max        2350 min
Histogram: 1 0 0 0 0 0 0 0 0 0
Neighs:          24991 ave       24991 max       24991 min
Histogram: 1 0 0 0 0 0 0 0 0 0

Total # of neighbors = 24991
Ave neighs/atom = 68.281421
Ave special neighs/atom = 6.557377
Neighbor list builds = 1463
Dangerous builds = 0
unfix           npt_relax

# fix nvt_heat    all nvt temp 300 1000 ${thermal_damp}
# run 100000      # 100 picoseconds
# unfix           nvt_heat
#
# fix npt_heat    all npt temp 1000 1000 ${thermal_damp} iso 0 0 ${pressure_damp}
# run 100000      # 100 picoseconds
# unfix           npt_heat
#
# fix cooling_npt all npt temp 1000 300 ${thermal_damp} iso 0 0 ${pressure_damp}
# run 700000      # 700 picoseconds
# unfix           cooling_npt
#
# fix npt_final   all npt temp 300 300 ${thermal_damp} iso 0 0 100
# run 100000      # 100 picoseconds
# unfix           npt_final

# density computation
variable rho equal density
fix integrate  all npt temp ${temp} ${temp} ${thermal_damp} iso 0 0 ${pressure_damp}
fix integrate  all npt temp 300 ${temp} ${thermal_damp} iso 0 0 ${pressure_damp}
fix integrate  all npt temp 300 300 ${thermal_damp} iso 0 0 ${pressure_damp}
fix integrate  all npt temp 300 300 100.0 iso 0 0 ${pressure_damp}
fix integrate  all npt temp 300 300 100.0 iso 0 0 500.0
fix rho50k all ave/time 10 5000 50000 v_rho mode scalar ave one
run 50000
Generated 6 of 6 mixed pair_coeff terms from arithmetic mixing rule
WARNING: Inconsistent image flags
For more information see https://docs.lammps.org/err0027 (src/domain.cpp:1052)
Per MPI rank memory allocation (min/avg/max) = 19.51 | 19.51 | 19.51 Mbytes
   Step          Temp          PotEng         KinEng         TotEng         Press          Volume        Density    
    200074   301.589        820.93529      328.12753      1149.0628     -702.2118       3652.6334      1.9563117    
    201000   283.61384      833.72025      308.57063      1142.2909      4033.3784      3639.6891      1.9632692    
    202000   283.18489      834.94417      308.10394      1143.0481     -4264.7212      3659.387       1.9527012    
    203000   323.10439      813.76805      351.53618      1165.3042      2928.1071      3659.1113      1.9528484    
    204000   292.96487      863.00918      318.74451      1181.7537     -2330.1358      3670.66        1.9467043    
    205000   303.96351      822.98764      330.71099      1153.6986     -1496.248       3673.0614      1.9454315    
    206000   312.37733      836.45476      339.86518      1176.3199      6078.9541      3635.3827      1.9655948    
    207000   282.4332       847.989        307.2861       1155.2751      989.69959      3668.9616      1.9476054    
    208000   301.21523      849.50802      327.72087      1177.2289      1348.9969      3666.3345      1.9490009    
    209000   297.14294      817.85992      323.29023      1141.1501      3528.6126      3648.1268      1.9587284    
    210000   289.89608      861.67312      315.40568      1177.0788      2164.8915      3674.5699      1.9446329    
    211000   298.98975      826.93564      325.29955      1152.2352     -1005.1137      3645.844       1.9599548    
    212000   313.94104      832.55585      341.56649      1174.1223      4237.3135      3648.178       1.9587009    
    213000   288.13261      855.05562      313.48703      1168.5427      6238.2538      3646.8203      1.9594301    
    214000   308.40267      830.70821      335.54077      1166.249       5713.6685      3648.2495      1.9586625    
    215000   325.63366      859.92441      354.28801      1214.2124      2710.0241      3645.9557      1.9598948    
    216000   304.78393      832.74937      331.6036       1164.353       3739.064       3658.6969      1.9530695    
    217000   299.13095      840.38505      325.45318      1165.8382      4120.9197      3655.0401      1.9550235    
    218000   306.33929      833.99391      333.29582      1167.2897     -817.37718      3664.4398      1.9500087    
    219000   293.23597      861.66524      319.03946      1180.7047     -474.94807      3646.5202      1.9595914    
    220000   286.67599      831.67994      311.90224      1143.5822      4271.4277      3649.9306      1.9577604    
    221000   318.20938      849.4153       346.21043      1195.6257     -1537.7636      3668.2301      1.9479938    
    222000   305.3618       848.95806      332.23232      1181.1904      20.950563      3668.7238      1.9477316    
    223000   296.72693      822.65455      322.83762      1145.4922     -2201.2953      3677.9267      1.942858     
    224000   304.07381      817.73065      330.83098      1148.5616      8565.3634      3646.9304      1.9593709    
    225000   321.24195      839.41944      349.50985      1188.9293     -2187.2711      3662.2038      1.9511993    
    226000   279.07343      845.07216      303.63069      1148.7028     -4323.5192      3664.6135      1.9499163    
    227000   274.29216      843.56944      298.42868      1141.9981     -4136.8538      3671.4094      1.9463069    
    228000   284.17553      816.80627      309.18175      1125.988       1525.1214      3650.2695      1.9575786    
    229000   291.27142      852.45271      316.90205      1169.3548     -4825.1502      3661.6151      1.951513     
    230000   307.68894      878.4776       334.76423      1213.2418     -5302.2277      3677.7126      1.9429712    
    231000   316.67825      809.71654      344.54456      1154.2611     -7561.9059      3678.7283      1.9424347    
    232000   311.66597      878.58589      339.09123      1217.6771      2453.2164      3661.9866      1.951315     
    233000   293.5059       843.3772       319.33315      1162.7104      1427.535       3664.6716      1.9498854    
    234000   308.99861      853.32154      336.18915      1189.5107      1244.1766      3673.278       1.9453168    
    235000   299.84728      852.17634      326.23254      1178.4089     -4167.148       3675.3897      1.9441991    
    236000   303.74678      830.91441      330.47518      1161.3896      5503.9546      3655.7866      1.9546243    
    237000   312.10899      810.29934      339.57323      1149.8726      2505.1128      3663.6502      1.950429     
    238000   314.32093      843.02772      341.97981      1185.0075     -5652.2328      3666.8419      1.9487313    
    239000   313.65724      815.37886      341.25772      1156.6366      549.66424      3676.6319      1.9435423    
    240000   289.8627       845.32451      315.36936      1160.6939      2738.3542      3652.3176      1.9564808    
    241000   281.28266      839.99263      306.03432      1146.0269     -1743.2395      3665.9039      1.9492299    
    242000   297.33764      833.12967      323.50207      1156.6317     -2570.5368      3667.4662      1.9483996    
    243000   296.88835      867.49229      323.01324      1190.5055      865.91786      3672.6485      1.9456502    
    244000   313.99817      835.49997      341.62865      1177.1286     -4491.4201      3673.6968      1.945095     
    245000   293.26754      843.55036      319.07382      1162.6242     -5436.1528      3687.2572      1.9379417    
    246000   319.18905      836.24835      347.27631      1183.5247      4583.7961      3648.8605      1.9583345    
    247000   293.54208      832.15678      319.37251      1151.5293      4551.1743      3664.3979      1.950031     
    248000   295.3966       826.9317       321.39022      1148.3219     -10569.171      3670.877       1.9465892    
    249000   308.61582      830.38315      335.77267      1166.1558      4022.7559      3650.8973      1.957242     
    250000   289.86772      848.93636      315.37483      1164.3112     -6767.1397      3686.2425      1.9384751    
    250074   308.2674       822.46711      335.39359      1157.8607      2446.8072      3666.2405      1.9490509    
Loop time of 13.6386 on 1 procs for 50000 steps with 366 atoms

Performance: 316.747 ns/day, 0.076 hours/ns, 3666.055 timesteps/s, 1.342 Matom-step/s
99.6% CPU use with 1 MPI tasks x 1 OpenMP threads

MPI task timing breakdown:
Section |  min time  |  avg time  |  max time  |%varavg| %total
---------------------------------------------------------------
Pair    | 8.1043     | 8.1043     | 8.1043     |   0.0 | 59.42
Bond    | 2.7741     | 2.7741     | 2.7741     |   0.0 | 20.34
Neigh   | 1.7044     | 1.7044     | 1.7044     |   0.0 | 12.50
Comm    | 0.28968    | 0.28968    | 0.28968    |   0.0 |  2.12
Output  | 0.27601    | 0.27601    | 0.27601    |   0.0 |  2.02
Modify  | 0.41306    | 0.41306    | 0.41306    |   0.0 |  3.03
Other   |            | 0.07719    |            |       |  0.57

Nlocal:            366 ave         366 max         366 min
Histogram: 1 0 0 0 0 0 0 0 0 0
Nghost:           2352 ave        2352 max        2352 min
Histogram: 1 0 0 0 0 0 0 0 0 0
Neighs:          24932 ave       24932 max       24932 min
Histogram: 1 0 0 0 0 0 0 0 0 0

Total # of neighbors = 24932
Ave neighs/atom = 68.120219
Ave special neighs/atom = 6.557377
Neighbor list builds = 734
Dangerous builds = 0
unfix integrate
unfix rho50k

# Compute initial state
fix 3 all box/relax  aniso 0.0
minimize ${etol} ${ftol} ${maxiter} ${maxeval}
minimize 0 ${ftol} ${maxiter} ${maxeval}
minimize 0 1e-10 ${maxiter} ${maxeval}
minimize 0 1e-10 100000 ${maxeval}
minimize 0 1e-10 100000 100000
Generated 6 of 6 mixed pair_coeff terms from arithmetic mixing rule
WARNING: Energy due to 3 extra global DOFs will be included in minimizer energies
 (src/min.cpp:222)
WARNING: Inconsistent image flags
For more information see https://docs.lammps.org/err0027 (src/domain.cpp:1052)
Per MPI rank memory allocation (min/avg/max) = 20.61 | 20.61 | 20.61 Mbytes
   Step          Temp          PotEng         KinEng         TotEng         Press          Volume        Density    
    250074   308.2674       822.46711      335.39359      1157.8607      2446.8072      3666.2405      1.9490509    
    250095   308.2674       819.47723      335.39359      1154.8708      3700.4636      3663.6353      1.9504369    
Loop time of 0.0391739 on 1 procs for 21 steps with 366 atoms

100.0% CPU use with 1 MPI tasks x 1 OpenMP threads

Minimization stats:
  Stopping criterion = linesearch alpha is zero
  Energy initial, next-to-last, final = 
      822.467114759085   819.477231037634   819.477231037634
  Force two-norm initial, final = 875.64904 740.91501
  Force max component initial, final = 333.62056 212.30825
  Final line search alpha, max atom move = 1.4037289e-14 2.9802322e-12
  Iterations, force evaluations = 21 124

MPI task timing breakdown:
Section |  min time  |  avg time  |  max time  |%varavg| %total
---------------------------------------------------------------
Pair    | 0.026258   | 0.026258   | 0.026258   |   0.0 | 67.03
Bond    | 0.008117   | 0.008117   | 0.008117   |   0.0 | 20.72
Neigh   | 0          | 0          | 0          |   0.0 |  0.00
Comm    | 0.00070667 | 0.00070667 | 0.00070667 |   0.0 |  1.80
Output  | 0          | 0          | 0          |   0.0 |  0.00
Modify  | 0          | 0          | 0          |   0.0 |  0.00
Other   |            | 0.004092   |            |       | 10.45

Nlocal:            366 ave         366 max         366 min
Histogram: 1 0 0 0 0 0 0 0 0 0
Nghost:           2358 ave        2358 max        2358 min
Histogram: 1 0 0 0 0 0 0 0 0 0
Neighs:          24887 ave       24887 max       24887 min
Histogram: 1 0 0 0 0 0 0 0 0 0

Total # of neighbors = 24887
Ave neighs/atom = 67.997268
Ave special neighs/atom = 6.557377
Neighbor list builds = 0
Dangerous builds = 0

variable tmp equal pxx
variable pxx0 equal ${tmp}
variable pxx0 equal 7886.59260287461
variable tmp equal pyy
variable pyy0 equal ${tmp}
variable pyy0 equal 1715.8791267919
variable tmp equal pzz
variable pzz0 equal ${tmp}
variable pzz0 equal 1498.91906351973
variable tmp equal pyz
variable pyz0 equal ${tmp}
variable pyz0 equal 5361.17754410636
variable tmp equal pxz
variable pxz0 equal ${tmp}
variable pxz0 equal -3625.87690227947
variable tmp equal pxy
variable pxy0 equal ${tmp}
variable pxy0 equal -678.957969884614

variable tmp equal lx
variable lx0 equal ${tmp}
variable lx0 equal 15.1998067258397
variable tmp equal ly
variable ly0 equal ${tmp}
variable ly0 equal 13.5708756533325
variable tmp equal lz
variable lz0 equal ${tmp}
variable lz0 equal 17.7609541192272

# These formulas define the derivatives w.r.t. strain components
# Constants uses $, variables use v_
variable d1 equal -(v_pxx1-${pxx0})/(v_delta/v_len0)*${cfac}
variable d1 equal -(v_pxx1-7886.59260287461)/(v_delta/v_len0)*${cfac}
variable d1 equal -(v_pxx1-7886.59260287461)/(v_delta/v_len0)*0.0001
variable d2 equal -(v_pyy1-${pyy0})/(v_delta/v_len0)*${cfac}
variable d2 equal -(v_pyy1-1715.8791267919)/(v_delta/v_len0)*${cfac}
variable d2 equal -(v_pyy1-1715.8791267919)/(v_delta/v_len0)*0.0001
variable d3 equal -(v_pzz1-${pzz0})/(v_delta/v_len0)*${cfac}
variable d3 equal -(v_pzz1-1498.91906351973)/(v_delta/v_len0)*${cfac}
variable d3 equal -(v_pzz1-1498.91906351973)/(v_delta/v_len0)*0.0001
variable d4 equal -(v_pyz1-${pyz0})/(v_delta/v_len0)*${cfac}
variable d4 equal -(v_pyz1-5361.17754410636)/(v_delta/v_len0)*${cfac}
variable d4 equal -(v_pyz1-5361.17754410636)/(v_delta/v_len0)*0.0001
variable d5 equal -(v_pxz1-${pxz0})/(v_delta/v_len0)*${cfac}
variable d5 equal -(v_pxz1--3625.87690227947)/(v_delta/v_len0)*${cfac}
variable d5 equal -(v_pxz1--3625.87690227947)/(v_delta/v_len0)*0.0001
variable d6 equal -(v_pxy1-${pxy0})/(v_delta/v_len0)*${cfac}
variable d6 equal -(v_pxy1--678.957969884614)/(v_delta/v_len0)*${cfac}
variable d6 equal -(v_pxy1--678.957969884614)/(v_delta/v_len0)*0.0001

# displace_atoms all random ${atomjiggle} ${atomjiggle} ${atomjiggle} 87287 units box

# Write restart
unfix 3
write_restart restart_333-HD-100C-11-VASP.equil
System init for write_restart ...
Generated 6 of 6 mixed pair_coeff terms from arithmetic mixing rule

# uxx Perturbation

variable dir equal 1
include ./input/displace_333-HD-100C-11-VASP.mod
if "${dir} == 1" then    "variable len0 equal ${lx0}"
variable len0 equal ${lx0}
variable len0 equal 15.1998067258397
if "${dir} == 2" then    "variable len0 equal ${ly0}"
if "${dir} == 3" then    "variable len0 equal ${lz0}"
if "${dir} == 4" then    "variable len0 equal ${lz0}"
if "${dir} == 5" then    "variable len0 equal ${lz0}"
if "${dir} == 6" then    "variable len0 equal ${ly0}"

# Reset box and simulation parameters

clear
OMP_NUM_THREADS environment is not set. Defaulting to 1 thread.
  using 1 OpenMP thread(s) per MPI task
box tilt large

The 'box' command has been removed and will be ignored

read_restart restart_333-HD-100C-11-VASP.equil
Reading restart file ...
  restart file = 10 Sep 2025, LAMMPS = 10 Sep 2025
  restoring atom style full from restart
  triclinic box = (-0.081328363 -0.058306827 -0.07677906) to (15.118478 13.512569 17.684175) with tilt (-7.5580609 -0.15991157 0.081420951)
WARNING: Triclinic box skew is large. LAMMPS will run inefficiently. (src/domain.cpp:221)
  1 by 1 by 1 MPI processor grid
  restoring pair style lj/cut from restart
  restoring bond style harmonic from restart
  restoring angle style hybrid from restart
  restoring dihedral style harmonic from restart
  366 atoms
  408 bonds
  792 angles
  1080 dihedrals
Finding 1-2 1-3 1-4 neighbors ...
  special bond factors lj:    0        0        1       
  special bond factors coul:  0        0        1       
     4 = max # of 1-2 neighbors
    10 = max # of 1-3 neighbors
    14 = max # of special neighbors
  special bonds CPU = 0.000 seconds
  read_restart CPU = 0.002 seconds
include ./input/angles_333-HD-100C-11-VASP.mod
angle_style hybrid fourier cosine/periodic
angle_coeff 1 fourier 221.735285        0.343737        0.374972        0.281246
angle_coeff 2 fourier 157.882480        0.343737        0.374972        0.281246
angle_coeff 3 fourier 114.246973        0.343737        0.374972        0.281246
angle_coeff 4 cosine/periodic 88.853997              -1               3
angle_coeff 5 fourier 90.420412        0.343737        0.374972        0.281246
angle_coeff 6 fourier 75.498766        0.343737        0.374972        0.281246

# Negative deformation

variable delta equal -${up}*${len0}
variable delta equal -0.02*${len0}
variable delta equal -0.02*15.1998067258397
variable deltaxy equal -${up}*xy
variable deltaxy equal -0.02*xy
variable deltaxz equal -${up}*xz
variable deltaxz equal -0.02*xz
variable deltayz equal -${up}*yz
variable deltayz equal -0.02*yz
if "${dir} == 1" then    "change_box all x delta 0 ${delta} xy delta ${deltaxy} xz delta ${deltaxz} remap units box"
change_box all x delta 0 ${delta} xy delta ${deltaxy} xz delta ${deltaxz} remap units box
change_box all x delta 0 -0.303996134516794 xy delta ${deltaxy} xz delta ${deltaxz} remap units box
change_box all x delta 0 -0.303996134516794 xy delta 0.151161218535997 xz delta ${deltaxz} remap units box
change_box all x delta 0 -0.303996134516794 xy delta 0.151161218535997 xz delta 0.00319823135183286 remap units box
Changing box ...
WARNING: Triclinic box skew is large. LAMMPS will run inefficiently. (src/domain.cpp:221)
  triclinic box = (-0.081328363 -0.058306827 -0.07677906) to (14.814482 13.512569 17.684175) with tilt (-7.5580609 -0.15991157 0.081420951)
WARNING: Triclinic box skew is large. LAMMPS will run inefficiently. (src/domain.cpp:221)
  triclinic box = (-0.081328363 -0.058306827 -0.07677906) to (14.814482 13.512569 17.684175) with tilt (-7.4068997 -0.15991157 0.081420951)
WARNING: Triclinic box skew is large. LAMMPS will run inefficiently. (src/domain.cpp:221)
  triclinic box = (-0.081328363 -0.058306827 -0.07677906) to (14.814482 13.512569 17.684175) with tilt (-7.4068997 -0.15671334 0.081420951)
if "${dir} == 2" then    "change_box all y delta 0 ${delta} yz delta ${deltayz} remap units box"
if "${dir} == 3" then    "change_box all z delta 0 ${delta} remap units box"
if "${dir} == 4" then    "change_box all yz delta ${delta} remap units box"
if "${dir} == 5" then    "change_box all xz delta ${delta} remap units box"
if "${dir} == 6" then    "change_box all xy delta ${delta} remap units box"

# Relax atoms positions

minimize ${etol} ${ftol} ${maxiter} ${maxeval}
minimize 0 ${ftol} ${maxiter} ${maxeval}
minimize 0 1e-10 ${maxiter} ${maxeval}
minimize 0 1e-10 100000 ${maxeval}
minimize 0 1e-10 100000 100000
Generated 6 of 6 mixed pair_coeff terms from arithmetic mixing rule
Neighbor list info ...
  update: every = 1 steps, delay = 0 steps, check = yes
  max neighbors/atom: 2000, page size: 100000
  master list distance cutoff = 7
  ghost atom cutoff = 7
  binsize = 3.5, bins = 7 4 6
  1 neighbor lists, perpetual/occasional/extra = 1 0 0
  (1) pair lj/cut, perpetual
      attributes: half, newton on
      pair build: half/bin/newton/tri
      stencil: half/bin/3d/tri
      bin: standard
WARNING: Inconsistent image flags
For more information see https://docs.lammps.org/err0027 (src/domain.cpp:1052)
Per MPI rank memory allocation (min/avg/max) = 19.53 | 19.53 | 19.53 Mbytes
   Step          Temp          E_pair         E_mol          TotEng         Press     
    250095   308.2674      -377.1985       1232.8347      1191.0298      35835.996    
    250127   308.2674      -408.27022      925.97024      853.09361      13740.249    
Loop time of 0.034059 on 1 procs for 32 steps with 366 atoms

99.9% CPU use with 1 MPI tasks x 1 OpenMP threads

Minimization stats:
  Stopping criterion = linesearch alpha is zero
  Energy initial, next-to-last, final = 
      855.636250496972   517.700018687952   517.700018687952
  Force two-norm initial, final = 699.21347 18.488884
  Force max component initial, final = 91.812095 2.5708699
  Final line search alpha, max atom move = 1.9773345e-11 5.0834697e-11
  Iterations, force evaluations = 32 121

MPI task timing breakdown:
Section |  min time  |  avg time  |  max time  |%varavg| %total
---------------------------------------------------------------
Pair    | 0.026002   | 0.026002   | 0.026002   |   0.0 | 76.34
Bond    | 0.0067958  | 0.0067958  | 0.0067958  |   0.0 | 19.95
Neigh   | 0          | 0          | 0          |   0.0 |  0.00
Comm    | 0.0007113  | 0.0007113  | 0.0007113  |   0.0 |  2.09
Output  | 0          | 0          | 0          |   0.0 |  0.00
Modify  | 0          | 0          | 0          |   0.0 |  0.00
Other   |            | 0.0005495  |            |       |  1.61

Nlocal:            366 ave         366 max         366 min
Histogram: 1 0 0 0 0 0 0 0 0 0
Nghost:           2374 ave        2374 max        2374 min
Histogram: 1 0 0 0 0 0 0 0 0 0
Neighs:          25394 ave       25394 max       25394 min
Histogram: 1 0 0 0 0 0 0 0 0 0

Total # of neighbors = 25394
Ave neighs/atom = 69.382514
Ave special neighs/atom = 6.557377
Neighbor list builds = 0
Dangerous builds = 0

# Obtain new stress tensor

variable tmp equal pxx
variable pxx1 equal ${tmp}
variable pxx1 equal 28063.885539312
variable tmp equal pyy
variable pyy1 equal ${tmp}
variable pyy1 equal 7089.37910923786
variable tmp equal pzz
variable pzz1 equal ${tmp}
variable pzz1 equal 6067.48312269662
variable tmp equal pxy
variable pxy1 equal ${tmp}
variable pxy1 equal 3538.56702824228
variable tmp equal pxz
variable pxz1 equal ${tmp}
variable pxz1 equal -2936.00648013371
variable tmp equal pyz
variable pyz1 equal ${tmp}
variable pyz1 equal 1097.4800861567

# Compute elastic constant from pressure tensor

variable C1neg equal ${d1}
variable C1neg equal 100.886464682187
variable C2neg equal ${d2}
variable C2neg equal 26.8674999122298
variable C3neg equal ${d3}
variable C3neg equal 22.8428202958845
variable C4neg equal ${d4}
variable C4neg equal -21.3184872897483
variable C5neg equal ${d5}
variable C5neg equal 3.4493521107288
variable C6neg equal ${d6}
variable C6neg equal 21.0876249906345

# Reset box and simulation parameters

clear
OMP_NUM_THREADS environment is not set. Defaulting to 1 thread.
  using 1 OpenMP thread(s) per MPI task
box tilt large

The 'box' command has been removed and will be ignored

read_restart restart_333-HD-100C-11-VASP.equil
Reading restart file ...
  restart file = 10 Sep 2025, LAMMPS = 10 Sep 2025
  restoring atom style full from restart
  triclinic box = (-0.081328363 -0.058306827 -0.07677906) to (15.118478 13.512569 17.684175) with tilt (-7.5580609 -0.15991157 0.081420951)
WARNING: Triclinic box skew is large. LAMMPS will run inefficiently. (src/domain.cpp:221)
  1 by 1 by 1 MPI processor grid
  restoring pair style lj/cut from restart
  restoring bond style harmonic from restart
  restoring angle style hybrid from restart
  restoring dihedral style harmonic from restart
  366 atoms
  408 bonds
  792 angles
  1080 dihedrals
Finding 1-2 1-3 1-4 neighbors ...
  special bond factors lj:    0        0        1       
  special bond factors coul:  0        0        1       
     4 = max # of 1-2 neighbors
    10 = max # of 1-3 neighbors
    14 = max # of special neighbors
  special bonds CPU = 0.000 seconds
  read_restart CPU = 0.001 seconds
include ./input/angles_333-HD-100C-11-VASP.mod
angle_style hybrid fourier cosine/periodic
angle_coeff 1 fourier 221.735285        0.343737        0.374972        0.281246
angle_coeff 2 fourier 157.882480        0.343737        0.374972        0.281246
angle_coeff 3 fourier 114.246973        0.343737        0.374972        0.281246
angle_coeff 4 cosine/periodic 88.853997              -1               3
angle_coeff 5 fourier 90.420412        0.343737        0.374972        0.281246
angle_coeff 6 fourier 75.498766        0.343737        0.374972        0.281246

# Positive deformation

variable delta equal ${up}*${len0}
variable delta equal 0.02*${len0}
variable delta equal 0.02*15.1998067258397
variable deltaxy equal ${up}*xy
variable deltaxy equal 0.02*xy
variable deltaxz equal ${up}*xz
variable deltaxz equal 0.02*xz
variable deltayz equal ${up}*yz
variable deltayz equal 0.02*yz
if "${dir} == 1" then    "change_box all x delta 0 ${delta} xy delta ${deltaxy} xz delta ${deltaxz} remap units box"
change_box all x delta 0 ${delta} xy delta ${deltaxy} xz delta ${deltaxz} remap units box
change_box all x delta 0 0.303996134516794 xy delta ${deltaxy} xz delta ${deltaxz} remap units box
change_box all x delta 0 0.303996134516794 xy delta -0.151161218535997 xz delta ${deltaxz} remap units box
change_box all x delta 0 0.303996134516794 xy delta -0.151161218535997 xz delta -0.00319823135183286 remap units box
Changing box ...
WARNING: Triclinic box skew is large. LAMMPS will run inefficiently. (src/domain.cpp:221)
  triclinic box = (-0.081328363 -0.058306827 -0.07677906) to (15.422474 13.512569 17.684175) with tilt (-7.5580609 -0.15991157 0.081420951)
WARNING: Triclinic box skew is large. LAMMPS will run inefficiently. (src/domain.cpp:221)
  triclinic box = (-0.081328363 -0.058306827 -0.07677906) to (15.422474 13.512569 17.684175) with tilt (-7.7092221 -0.15991157 0.081420951)
WARNING: Triclinic box skew is large. LAMMPS will run inefficiently. (src/domain.cpp:221)
  triclinic box = (-0.081328363 -0.058306827 -0.07677906) to (15.422474 13.512569 17.684175) with tilt (-7.7092221 -0.1631098 0.081420951)
if "${dir} == 2" then    "change_box all y delta 0 ${delta} yz delta ${deltayz} remap units box"
if "${dir} == 3" then    "change_box all z delta 0 ${delta} remap units box"
if "${dir} == 4" then    "change_box all yz delta ${delta} remap units box"
if "${dir} == 5" then    "change_box all xz delta ${delta} remap units box"
if "${dir} == 6" then    "change_box all xy delta ${delta} remap units box"

# Relax atoms positions

minimize ${etol} ${ftol} ${maxiter} ${maxeval}
minimize 0 ${ftol} ${maxiter} ${maxeval}
minimize 0 1e-10 ${maxiter} ${maxeval}
minimize 0 1e-10 100000 ${maxeval}
minimize 0 1e-10 100000 100000
Generated 6 of 6 mixed pair_coeff terms from arithmetic mixing rule
Neighbor list info ...
  update: every = 1 steps, delay = 0 steps, check = yes
  max neighbors/atom: 2000, page size: 100000
  master list distance cutoff = 7
  ghost atom cutoff = 7
  binsize = 3.5, bins = 7 4 6
  1 neighbor lists, perpetual/occasional/extra = 1 0 0
  (1) pair lj/cut, perpetual
      attributes: half, newton on
      pair build: half/bin/newton/tri
      stencil: half/bin/3d/tri
      bin: standard
WARNING: Inconsistent image flags
For more information see https://docs.lammps.org/err0027 (src/domain.cpp:1052)
Per MPI rank memory allocation (min/avg/max) = 19.53 | 19.53 | 19.53 Mbytes
   Step          Temp          E_pair         E_mol          TotEng         Press     
    250095   308.2674      -432.99859      1284.604       1186.999      -27162.194    
    250138   308.2674      -477.19419      1004.5612      862.76058     -17069.487    
Loop time of 0.0400384 on 1 procs for 43 steps with 366 atoms

100.0% CPU use with 1 MPI tasks x 1 OpenMP threads

Minimization stats:
  Stopping criterion = linesearch alpha is zero
  Energy initial, next-to-last, final = 
      851.605439890862   527.366991338868   527.366991338868
  Force two-norm initial, final = 701.14082 11.307218
  Force max component initial, final = 88.165986 1.4849752
  Final line search alpha, max atom move = 7.6743259e-11 1.1396184e-10
  Iterations, force evaluations = 43 139

MPI task timing breakdown:
Section |  min time  |  avg time  |  max time  |%varavg| %total
---------------------------------------------------------------
Pair    | 0.030375   | 0.030375   | 0.030375   |   0.0 | 75.86
Bond    | 0.0080817  | 0.0080817  | 0.0080817  |   0.0 | 20.18
Neigh   | 0          | 0          | 0          |   0.0 |  0.00
Comm    | 0.00088148 | 0.00088148 | 0.00088148 |   0.0 |  2.20
Output  | 0          | 0          | 0          |   0.0 |  0.00
Modify  | 0          | 0          | 0          |   0.0 |  0.00
Other   |            | 0.0007002  |            |       |  1.75

Nlocal:            366 ave         366 max         366 min
Histogram: 1 0 0 0 0 0 0 0 0 0
Nghost:           2324 ave        2324 max        2324 min
Histogram: 1 0 0 0 0 0 0 0 0 0
Neighs:          24404 ave       24404 max       24404 min
Histogram: 1 0 0 0 0 0 0 0 0 0

Total # of neighbors = 24404
Ave neighs/atom = 66.677596
Ave special neighs/atom = 6.557377
Neighbor list builds = 0
Dangerous builds = 0

# Obtain new stress tensor

variable tmp equal pe
variable e1 equal ${tmp}
variable e1 equal 527.366991338868
variable tmp equal press
variable p1 equal ${tmp}
variable p1 equal -17069.4873461378
variable tmp equal pxx
variable pxx1 equal ${tmp}
variable pxx1 equal -24708.743401564
variable tmp equal pyy
variable pyy1 equal ${tmp}
variable pyy1 equal -11901.0520830438
variable tmp equal pzz
variable pzz1 equal ${tmp}
variable pzz1 equal -14598.6665538055
variable tmp equal pxy
variable pxy1 equal ${tmp}
variable pxy1 equal 3085.29343312722
variable tmp equal pxz
variable pxz1 equal ${tmp}
variable pxz1 equal -3911.56899432647
variable tmp equal pyz
variable pyz1 equal ${tmp}
variable pyz1 equal 1509.55087119779

# Compute elastic constant from pressure tensor

variable C1pos equal ${d1}
variable C1pos equal 162.976680022193
variable C2pos equal ${d2}
variable C2pos equal 68.0846560491785
variable C3pos equal ${d3}
variable C3pos equal 80.4879280866262
variable C4pos equal ${d4}
variable C4pos equal 19.2581333645429
variable C5pos equal ${d5}
variable C5pos equal 1.428460460235
variable C6pos equal ${d6}
variable C6pos equal -18.8212570150592

# Combine positive and negative

variable C1${dir} equal 0.5*(${C1neg}+${C1pos})
variable C11 equal 0.5*(${C1neg}+${C1pos})
variable C11 equal 0.5*(100.886464682187+${C1pos})
variable C11 equal 0.5*(100.886464682187+162.976680022193)
variable C2${dir} equal 0.5*(${C2neg}+${C2pos})
variable C21 equal 0.5*(${C2neg}+${C2pos})
variable C21 equal 0.5*(26.8674999122298+${C2pos})
variable C21 equal 0.5*(26.8674999122298+68.0846560491785)
variable C3${dir} equal 0.5*(${C3neg}+${C3pos})
variable C31 equal 0.5*(${C3neg}+${C3pos})
variable C31 equal 0.5*(22.8428202958845+${C3pos})
variable C31 equal 0.5*(22.8428202958845+80.4879280866262)
variable C4${dir} equal 0.5*(${C4neg}+${C4pos})
variable C41 equal 0.5*(${C4neg}+${C4pos})
variable C41 equal 0.5*(-21.3184872897483+${C4pos})
variable C41 equal 0.5*(-21.3184872897483+19.2581333645429)
variable C5${dir} equal 0.5*(${C5neg}+${C5pos})
variable C51 equal 0.5*(${C5neg}+${C5pos})
variable C51 equal 0.5*(3.4493521107288+${C5pos})
variable C51 equal 0.5*(3.4493521107288+1.428460460235)
variable C6${dir} equal 0.5*(${C6neg}+${C6pos})
variable C61 equal 0.5*(${C6neg}+${C6pos})
variable C61 equal 0.5*(21.0876249906345+${C6pos})
variable C61 equal 0.5*(21.0876249906345+-18.8212570150592)

# Delete dir to make sure it is not reused

variable dir delete

# uyy Perturbation

variable dir equal 2
include ./input/displace_333-HD-100C-11-VASP.mod
if "${dir} == 1" then    "variable len0 equal ${lx0}"
if "${dir} == 2" then    "variable len0 equal ${ly0}"
variable len0 equal ${ly0}
variable len0 equal 13.5708756533325
if "${dir} == 3" then    "variable len0 equal ${lz0}"
if "${dir} == 4" then    "variable len0 equal ${lz0}"
if "${dir} == 5" then    "variable len0 equal ${lz0}"
if "${dir} == 6" then    "variable len0 equal ${ly0}"

# Reset box and simulation parameters

clear
OMP_NUM_THREADS environment is not set. Defaulting to 1 thread.
  using 1 OpenMP thread(s) per MPI task
box tilt large

The 'box' command has been removed and will be ignored

read_restart restart_333-HD-100C-11-VASP.equil
Reading restart file ...
  restart file = 10 Sep 2025, LAMMPS = 10 Sep 2025
  restoring atom style full from restart
  triclinic box = (-0.081328363 -0.058306827 -0.07677906) to (15.118478 13.512569 17.684175) with tilt (-7.5580609 -0.15991157 0.081420951)
WARNING: Triclinic box skew is large. LAMMPS will run inefficiently. (src/domain.cpp:221)
  1 by 1 by 1 MPI processor grid
  restoring pair style lj/cut from restart
  restoring bond style harmonic from restart
  restoring angle style hybrid from restart
  restoring dihedral style harmonic from restart
  366 atoms
  408 bonds
  792 angles
  1080 dihedrals
Finding 1-2 1-3 1-4 neighbors ...
  special bond factors lj:    0        0        1       
  special bond factors coul:  0        0        1       
     4 = max # of 1-2 neighbors
    10 = max # of 1-3 neighbors
    14 = max # of special neighbors
  special bonds CPU = 0.000 seconds
  read_restart CPU = 0.002 seconds
include ./input/angles_333-HD-100C-11-VASP.mod
angle_style hybrid fourier cosine/periodic
angle_coeff 1 fourier 221.735285        0.343737        0.374972        0.281246
angle_coeff 2 fourier 157.882480        0.343737        0.374972        0.281246
angle_coeff 3 fourier 114.246973        0.343737        0.374972        0.281246
angle_coeff 4 cosine/periodic 88.853997              -1               3
angle_coeff 5 fourier 90.420412        0.343737        0.374972        0.281246
angle_coeff 6 fourier 75.498766        0.343737        0.374972        0.281246

# Negative deformation

variable delta equal -${up}*${len0}
variable delta equal -0.02*${len0}
variable delta equal -0.02*13.5708756533325
variable deltaxy equal -${up}*xy
variable deltaxy equal -0.02*xy
variable deltaxz equal -${up}*xz
variable deltaxz equal -0.02*xz
variable deltayz equal -${up}*yz
variable deltayz equal -0.02*yz
if "${dir} == 1" then    "change_box all x delta 0 ${delta} xy delta ${deltaxy} xz delta ${deltaxz} remap units box"
if "${dir} == 2" then    "change_box all y delta 0 ${delta} yz delta ${deltayz} remap units box"
change_box all y delta 0 ${delta} yz delta ${deltayz} remap units box
change_box all y delta 0 -0.27141751306665 yz delta ${deltayz} remap units box
change_box all y delta 0 -0.27141751306665 yz delta -0.00162841902759681 remap units box
Changing box ...
WARNING: Triclinic box skew is large. LAMMPS will run inefficiently. (src/domain.cpp:221)
  triclinic box = (-0.081328363 -0.058306827 -0.07677906) to (15.118478 13.241151 17.684175) with tilt (-7.5580609 -0.15991157 0.081420951)
WARNING: Triclinic box skew is large. LAMMPS will run inefficiently. (src/domain.cpp:221)
  triclinic box = (-0.081328363 -0.058306827 -0.07677906) to (15.118478 13.241151 17.684175) with tilt (-7.5580609 -0.15991157 0.079792532)
if "${dir} == 3" then    "change_box all z delta 0 ${delta} remap units box"
if "${dir} == 4" then    "change_box all yz delta ${delta} remap units box"
if "${dir} == 5" then    "change_box all xz delta ${delta} remap units box"
if "${dir} == 6" then    "change_box all xy delta ${delta} remap units box"

# Relax atoms positions

minimize ${etol} ${ftol} ${maxiter} ${maxeval}
minimize 0 ${ftol} ${maxiter} ${maxeval}
minimize 0 1e-10 ${maxiter} ${maxeval}
minimize 0 1e-10 100000 ${maxeval}
minimize 0 1e-10 100000 100000
Generated 6 of 6 mixed pair_coeff terms from arithmetic mixing rule
Neighbor list info ...
  update: every = 1 steps, delay = 0 steps, check = yes
  max neighbors/atom: 2000, page size: 100000
  master list distance cutoff = 7
  ghost atom cutoff = 7
  binsize = 3.5, bins = 7 4 6
  1 neighbor lists, perpetual/occasional/extra = 1 0 0
  (1) pair lj/cut, perpetual
      attributes: half, newton on
      pair build: half/bin/newton/tri
      stencil: half/bin/3d/tri
      bin: standard
WARNING: Inconsistent image flags
For more information see https://docs.lammps.org/err0027 (src/domain.cpp:1052)
Per MPI rank memory allocation (min/avg/max) = 19.54 | 19.54 | 19.54 Mbytes
   Step          Temp          E_pair         E_mol          TotEng         Press     
    250095   308.2674      -373.95015      1225.7091      1187.1526      36689.874    
    250138   308.2674      -410.10585      923.20406      848.4918       13449.111    
Loop time of 0.0406361 on 1 procs for 43 steps with 366 atoms

100.0% CPU use with 1 MPI tasks x 1 OpenMP threads

Minimization stats:
  Stopping criterion = linesearch alpha is zero
  Energy initial, next-to-last, final = 
        851.7589657801   513.098204719021   513.098204719021
  Force two-norm initial, final = 709.35282 15.148986
  Force max component initial, final = 98.043239 2.3601776
  Final line search alpha, max atom move = 2.7812929e-11 6.5643453e-11
  Iterations, force evaluations = 43 141

MPI task timing breakdown:
Section |  min time  |  avg time  |  max time  |%varavg| %total
---------------------------------------------------------------
Pair    | 0.031191   | 0.031191   | 0.031191   |   0.0 | 76.76
Bond    | 0.0079133  | 0.0079133  | 0.0079133  |   0.0 | 19.47
Neigh   | 0          | 0          | 0          |   0.0 |  0.00
Comm    | 0.00086903 | 0.00086903 | 0.00086903 |   0.0 |  2.14
Output  | 0          | 0          | 0          |   0.0 |  0.00
Modify  | 0          | 0          | 0          |   0.0 |  0.00
Other   |            | 0.000663   |            |       |  1.63

Nlocal:            366 ave         366 max         366 min
Histogram: 1 0 0 0 0 0 0 0 0 0
Nghost:           2402 ave        2402 max        2402 min
Histogram: 1 0 0 0 0 0 0 0 0 0
Neighs:          25435 ave       25435 max       25435 min
Histogram: 1 0 0 0 0 0 0 0 0 0

Total # of neighbors = 25435
Ave neighs/atom = 69.494536
Ave special neighs/atom = 6.557377
Neighbor list builds = 0
Dangerous builds = 0

# Obtain new stress tensor

variable tmp equal pxx
variable pxx1 equal ${tmp}
variable pxx1 equal 10854.1291468237
variable tmp equal pyy
variable pyy1 equal ${tmp}
variable pyy1 equal 24740.607919415
variable tmp equal pzz
variable pzz1 equal ${tmp}
variable pzz1 equal 4752.59628048382
variable tmp equal pxy
variable pxy1 equal ${tmp}
variable pxy1 equal 2344.63958486229
variable tmp equal pxz
variable pxz1 equal ${tmp}
variable pxz1 equal -3366.46479055467
variable tmp equal pyz
variable pyz1 equal ${tmp}
variable pyz1 equal 984.797023334947

# Compute elastic constant from pressure tensor

variable C1neg equal ${d1}
variable C1neg equal 14.8376827197454
variable C2neg equal ${d2}
variable C2neg equal 115.123643963115
variable C3neg equal ${d3}
variable C3neg equal 16.2683860848204
variable C4neg equal ${d4}
variable C4neg equal -21.8819026038571
variable C5neg equal ${d5}
variable C5neg equal 1.297060558624
variable C6neg equal ${d6}
variable C6neg equal 15.1179877737345

# Reset box and simulation parameters

clear
OMP_NUM_THREADS environment is not set. Defaulting to 1 thread.
  using 1 OpenMP thread(s) per MPI task
box tilt large

The 'box' command has been removed and will be ignored

read_restart restart_333-HD-100C-11-VASP.equil
Reading restart file ...
  restart file = 10 Sep 2025, LAMMPS = 10 Sep 2025
  restoring atom style full from restart
  triclinic box = (-0.081328363 -0.058306827 -0.07677906) to (15.118478 13.512569 17.684175) with tilt (-7.5580609 -0.15991157 0.081420951)
WARNING: Triclinic box skew is large. LAMMPS will run inefficiently. (src/domain.cpp:221)
  1 by 1 by 1 MPI processor grid
  restoring pair style lj/cut from restart
  restoring bond style harmonic from restart
  restoring angle style hybrid from restart
  restoring dihedral style harmonic from restart
  366 atoms
  408 bonds
  792 angles
  1080 dihedrals
Finding 1-2 1-3 1-4 neighbors ...
  special bond factors lj:    0        0        1       
  special bond factors coul:  0        0        1       
     4 = max # of 1-2 neighbors
    10 = max # of 1-3 neighbors
    14 = max # of special neighbors
  special bonds CPU = 0.000 seconds
  read_restart CPU = 0.001 seconds
include ./input/angles_333-HD-100C-11-VASP.mod
angle_style hybrid fourier cosine/periodic
angle_coeff 1 fourier 221.735285        0.343737        0.374972        0.281246
angle_coeff 2 fourier 157.882480        0.343737        0.374972        0.281246
angle_coeff 3 fourier 114.246973        0.343737        0.374972        0.281246
angle_coeff 4 cosine/periodic 88.853997              -1               3
angle_coeff 5 fourier 90.420412        0.343737        0.374972        0.281246
angle_coeff 6 fourier 75.498766        0.343737        0.374972        0.281246

# Positive deformation

variable delta equal ${up}*${len0}
variable delta equal 0.02*${len0}
variable delta equal 0.02*13.5708756533325
variable deltaxy equal ${up}*xy
variable deltaxy equal 0.02*xy
variable deltaxz equal ${up}*xz
variable deltaxz equal 0.02*xz
variable deltayz equal ${up}*yz
variable deltayz equal 0.02*yz
if "${dir} == 1" then    "change_box all x delta 0 ${delta} xy delta ${deltaxy} xz delta ${deltaxz} remap units box"
if "${dir} == 2" then    "change_box all y delta 0 ${delta} yz delta ${deltayz} remap units box"
change_box all y delta 0 ${delta} yz delta ${deltayz} remap units box
change_box all y delta 0 0.27141751306665 yz delta ${deltayz} remap units box
change_box all y delta 0 0.27141751306665 yz delta 0.00162841902759681 remap units box
Changing box ...
WARNING: Triclinic box skew is large. LAMMPS will run inefficiently. (src/domain.cpp:221)
  triclinic box = (-0.081328363 -0.058306827 -0.07677906) to (15.118478 13.783986 17.684175) with tilt (-7.5580609 -0.15991157 0.081420951)
WARNING: Triclinic box skew is large. LAMMPS will run inefficiently. (src/domain.cpp:221)
  triclinic box = (-0.081328363 -0.058306827 -0.07677906) to (15.118478 13.783986 17.684175) with tilt (-7.5580609 -0.15991157 0.08304937)
if "${dir} == 3" then    "change_box all z delta 0 ${delta} remap units box"
if "${dir} == 4" then    "change_box all yz delta ${delta} remap units box"
if "${dir} == 5" then    "change_box all xz delta ${delta} remap units box"
if "${dir} == 6" then    "change_box all xy delta ${delta} remap units box"

# Relax atoms positions

minimize ${etol} ${ftol} ${maxiter} ${maxeval}
minimize 0 ${ftol} ${maxiter} ${maxeval}
minimize 0 1e-10 ${maxiter} ${maxeval}
minimize 0 1e-10 100000 ${maxeval}
minimize 0 1e-10 100000 100000
Generated 6 of 6 mixed pair_coeff terms from arithmetic mixing rule
Neighbor list info ...
  update: every = 1 steps, delay = 0 steps, check = yes
  max neighbors/atom: 2000, page size: 100000
  master list distance cutoff = 7
  ghost atom cutoff = 7
  binsize = 3.5, bins = 7 4 6
  1 neighbor lists, perpetual/occasional/extra = 1 0 0
  (1) pair lj/cut, perpetual
      attributes: half, newton on
      pair build: half/bin/newton/tri
      stencil: half/bin/3d/tri
      bin: standard
WARNING: Inconsistent image flags
For more information see https://docs.lammps.org/err0027 (src/domain.cpp:1052)
Per MPI rank memory allocation (min/avg/max) = 19.53 | 19.53 | 19.53 Mbytes
   Step          Temp          E_pair         E_mol          TotEng         Press     
    250095   308.2674      -435.15008      1295.1173      1195.3608     -27980.844    
    250123   308.2674      -475.2549       1010.4591      870.59782     -16999.54     
Loop time of 0.0305596 on 1 procs for 28 steps with 366 atoms

100.0% CPU use with 1 MPI tasks x 1 OpenMP threads

Minimization stats:
  Stopping criterion = linesearch alpha is zero
  Energy initial, next-to-last, final = 
      859.967210370387    535.20422232553    535.20422232553
  Force two-norm initial, final = 696.3988 20.547455
  Force max component initial, final = 82.112764 3.0010757
  Final line search alpha, max atom move = 2.1693098e-11 6.510263e-11
  Iterations, force evaluations = 28 113

MPI task timing breakdown:
Section |  min time  |  avg time  |  max time  |%varavg| %total
---------------------------------------------------------------
Pair    | 0.023223   | 0.023223   | 0.023223   |   0.0 | 75.99
Bond    | 0.0061516  | 0.0061516  | 0.0061516  |   0.0 | 20.13
Neigh   | 0          | 0          | 0          |   0.0 |  0.00
Comm    | 0.000672   | 0.000672   | 0.000672   |   0.0 |  2.20
Output  | 0          | 0          | 0          |   0.0 |  0.00
Modify  | 0          | 0          | 0          |   0.0 |  0.00
Other   |            | 0.0005125  |            |       |  1.68

Nlocal:            366 ave         366 max         366 min
Histogram: 1 0 0 0 0 0 0 0 0 0
Nghost:           2344 ave        2344 max        2344 min
Histogram: 1 0 0 0 0 0 0 0 0 0
Neighs:          24416 ave       24416 max       24416 min
Histogram: 1 0 0 0 0 0 0 0 0 0

Total # of neighbors = 24416
Ave neighs/atom = 66.710383
Ave special neighs/atom = 6.557377
Neighbor list builds = 0
Dangerous builds = 0

# Obtain new stress tensor

variable tmp equal pe
variable e1 equal ${tmp}
variable e1 equal 535.20422232553
variable tmp equal press
variable p1 equal ${tmp}
variable p1 equal -16999.539896985
variable tmp equal pxx
variable pxx1 equal ${tmp}
variable pxx1 equal -8086.58003259343
variable tmp equal pyy
variable pyy1 equal ${tmp}
variable pyy1 equal -29549.5119956563
variable tmp equal pzz
variable pzz1 equal ${tmp}
variable pzz1 equal -13362.5276627053
variable tmp equal pxy
variable pxy1 equal ${tmp}
variable pxy1 equal 3540.82735850475
variable tmp equal pxz
variable pxz1 equal ${tmp}
variable pxz1 equal -3737.57084781945
variable tmp equal pyz
variable pyz1 equal ${tmp}
variable pyz1 equal 1616.9069306418

# Compute elastic constant from pressure tensor

variable C1pos equal ${d1}
variable C1pos equal 79.8658631773402
variable C2pos equal ${d2}
variable C2pos equal 156.326955612241
variable C3pos equal ${d3}
variable C3pos equal 74.3072336311252
variable C4pos equal ${d4}
variable C4pos equal 18.7213530673228
variable C5pos equal ${d5}
variable C5pos equal 0.558469727699901
variable C6pos equal ${d6}
variable C6pos equal -21.0989266419468

# Combine positive and negative

variable C1${dir} equal 0.5*(${C1neg}+${C1pos})
variable C12 equal 0.5*(${C1neg}+${C1pos})
variable C12 equal 0.5*(14.8376827197454+${C1pos})
variable C12 equal 0.5*(14.8376827197454+79.8658631773402)
variable C2${dir} equal 0.5*(${C2neg}+${C2pos})
variable C22 equal 0.5*(${C2neg}+${C2pos})
variable C22 equal 0.5*(115.123643963115+${C2pos})
variable C22 equal 0.5*(115.123643963115+156.326955612241)
variable C3${dir} equal 0.5*(${C3neg}+${C3pos})
variable C32 equal 0.5*(${C3neg}+${C3pos})
variable C32 equal 0.5*(16.2683860848204+${C3pos})
variable C32 equal 0.5*(16.2683860848204+74.3072336311252)
variable C4${dir} equal 0.5*(${C4neg}+${C4pos})
variable C42 equal 0.5*(${C4neg}+${C4pos})
variable C42 equal 0.5*(-21.8819026038571+${C4pos})
variable C42 equal 0.5*(-21.8819026038571+18.7213530673228)
variable C5${dir} equal 0.5*(${C5neg}+${C5pos})
variable C52 equal 0.5*(${C5neg}+${C5pos})
variable C52 equal 0.5*(1.297060558624+${C5pos})
variable C52 equal 0.5*(1.297060558624+0.558469727699901)
variable C6${dir} equal 0.5*(${C6neg}+${C6pos})
variable C62 equal 0.5*(${C6neg}+${C6pos})
variable C62 equal 0.5*(15.1179877737345+${C6pos})
variable C62 equal 0.5*(15.1179877737345+-21.0989266419468)

# Delete dir to make sure it is not reused

variable dir delete

# uzz Perturbation

variable dir equal 3
include ./input/displace_333-HD-100C-11-VASP.mod
if "${dir} == 1" then    "variable len0 equal ${lx0}"
if "${dir} == 2" then    "variable len0 equal ${ly0}"
if "${dir} == 3" then    "variable len0 equal ${lz0}"
variable len0 equal ${lz0}
variable len0 equal 17.7609541192272
if "${dir} == 4" then    "variable len0 equal ${lz0}"
if "${dir} == 5" then    "variable len0 equal ${lz0}"
if "${dir} == 6" then    "variable len0 equal ${ly0}"

# Reset box and simulation parameters

clear
OMP_NUM_THREADS environment is not set. Defaulting to 1 thread.
  using 1 OpenMP thread(s) per MPI task
box tilt large

The 'box' command has been removed and will be ignored

read_restart restart_333-HD-100C-11-VASP.equil
Reading restart file ...
  restart file = 10 Sep 2025, LAMMPS = 10 Sep 2025
  restoring atom style full from restart
  triclinic box = (-0.081328363 -0.058306827 -0.07677906) to (15.118478 13.512569 17.684175) with tilt (-7.5580609 -0.15991157 0.081420951)
WARNING: Triclinic box skew is large. LAMMPS will run inefficiently. (src/domain.cpp:221)
  1 by 1 by 1 MPI processor grid
  restoring pair style lj/cut from restart
  restoring bond style harmonic from restart
  restoring angle style hybrid from restart
  restoring dihedral style harmonic from restart
  366 atoms
  408 bonds
  792 angles
  1080 dihedrals
Finding 1-2 1-3 1-4 neighbors ...
  special bond factors lj:    0        0        1       
  special bond factors coul:  0        0        1       
     4 = max # of 1-2 neighbors
    10 = max # of 1-3 neighbors
    14 = max # of special neighbors
  special bonds CPU = 0.000 seconds
  read_restart CPU = 0.001 seconds
include ./input/angles_333-HD-100C-11-VASP.mod
angle_style hybrid fourier cosine/periodic
angle_coeff 1 fourier 221.735285        0.343737        0.374972        0.281246
angle_coeff 2 fourier 157.882480        0.343737        0.374972        0.281246
angle_coeff 3 fourier 114.246973        0.343737        0.374972        0.281246
angle_coeff 4 cosine/periodic 88.853997              -1               3
angle_coeff 5 fourier 90.420412        0.343737        0.374972        0.281246
angle_coeff 6 fourier 75.498766        0.343737        0.374972        0.281246

# Negative deformation

variable delta equal -${up}*${len0}
variable delta equal -0.02*${len0}
variable delta equal -0.02*17.7609541192272
variable deltaxy equal -${up}*xy
variable deltaxy equal -0.02*xy
variable deltaxz equal -${up}*xz
variable deltaxz equal -0.02*xz
variable deltayz equal -${up}*yz
variable deltayz equal -0.02*yz
if "${dir} == 1" then    "change_box all x delta 0 ${delta} xy delta ${deltaxy} xz delta ${deltaxz} remap units box"
if "${dir} == 2" then    "change_box all y delta 0 ${delta} yz delta ${deltayz} remap units box"
if "${dir} == 3" then    "change_box all z delta 0 ${delta} remap units box"
change_box all z delta 0 ${delta} remap units box
change_box all z delta 0 -0.355219082384544 remap units box
Changing box ...
WARNING: Triclinic box skew is large. LAMMPS will run inefficiently. (src/domain.cpp:221)
  triclinic box = (-0.081328363 -0.058306827 -0.07677906) to (15.118478 13.512569 17.328956) with tilt (-7.5580609 -0.15991157 0.081420951)
if "${dir} == 4" then    "change_box all yz delta ${delta} remap units box"
if "${dir} == 5" then    "change_box all xz delta ${delta} remap units box"
if "${dir} == 6" then    "change_box all xy delta ${delta} remap units box"

# Relax atoms positions

minimize ${etol} ${ftol} ${maxiter} ${maxeval}
minimize 0 ${ftol} ${maxiter} ${maxeval}
minimize 0 1e-10 ${maxiter} ${maxeval}
minimize 0 1e-10 100000 ${maxeval}
minimize 0 1e-10 100000 100000
Generated 6 of 6 mixed pair_coeff terms from arithmetic mixing rule
Neighbor list info ...
  update: every = 1 steps, delay = 0 steps, check = yes
  max neighbors/atom: 2000, page size: 100000
  master list distance cutoff = 7
  ghost atom cutoff = 7
  binsize = 3.5, bins = 7 4 5
  1 neighbor lists, perpetual/occasional/extra = 1 0 0
  (1) pair lj/cut, perpetual
      attributes: half, newton on
      pair build: half/bin/newton/tri
      stencil: half/bin/3d/tri
      bin: standard
WARNING: Inconsistent image flags
For more information see https://docs.lammps.org/err0027 (src/domain.cpp:1052)
Per MPI rank memory allocation (min/avg/max) = 19.54 | 19.54 | 19.54 Mbytes
   Step          Temp          E_pair         E_mol          TotEng         Press     
    250095   308.2674      -371.02145      1222.3592      1186.7314      37602.23     
    250128   308.2674      -401.12714      916.70889      850.97534      14484.099    
Loop time of 0.034433 on 1 procs for 33 steps with 366 atoms

100.0% CPU use with 1 MPI tasks x 1 OpenMP threads

Minimization stats:
  Stopping criterion = linesearch alpha is zero
  Energy initial, next-to-last, final = 
      851.337780704982   515.581743157587   515.581743157587
  Force two-norm initial, final = 692.74877 17.578678
  Force max component initial, final = 80.222434 2.2542846
  Final line search alpha, max atom move = 3.8156077e-11 8.6014655e-11
  Iterations, force evaluations = 33 121

MPI task timing breakdown:
Section |  min time  |  avg time  |  max time  |%varavg| %total
---------------------------------------------------------------
Pair    | 0.026469   | 0.026469   | 0.026469   |   0.0 | 76.87
Bond    | 0.0066982  | 0.0066982  | 0.0066982  |   0.0 | 19.45
Neigh   | 0          | 0          | 0          |   0.0 |  0.00
Comm    | 0.00072352 | 0.00072352 | 0.00072352 |   0.0 |  2.10
Output  | 0          | 0          | 0          |   0.0 |  0.00
Modify  | 0          | 0          | 0          |   0.0 |  0.00
Other   |            | 0.0005424  |            |       |  1.58

Nlocal:            366 ave         366 max         366 min
Histogram: 1 0 0 0 0 0 0 0 0 0
Nghost:           2390 ave        2390 max        2390 min
Histogram: 1 0 0 0 0 0 0 0 0 0
Neighs:          25427 ave       25427 max       25427 min
Histogram: 1 0 0 0 0 0 0 0 0 0

Total # of neighbors = 25427
Ave neighs/atom = 69.472678
Ave special neighs/atom = 6.557377
Neighbor list builds = 0
Dangerous builds = 0

# Obtain new stress tensor

variable tmp equal pxx
variable pxx1 equal ${tmp}
variable pxx1 equal 10964.9037238966
variable tmp equal pyy
variable pyy1 equal ${tmp}
variable pyy1 equal 7989.59455954338
variable tmp equal pzz
variable pzz1 equal ${tmp}
variable pzz1 equal 24497.7977681735
variable tmp equal pxy
variable pxy1 equal ${tmp}
variable pxy1 equal 3761.19198187009
variable tmp equal pxz
variable pxz1 equal ${tmp}
variable pxz1 equal -2563.22093312449
variable tmp equal pyz
variable pyz1 equal ${tmp}
variable pyz1 equal 1250.44438940723

# Compute elastic constant from pressure tensor

variable C1neg equal ${d1}
variable C1neg equal 15.3915556051099
variable C2neg equal ${d2}
variable C2neg equal 31.3685771637574
variable C3neg equal ${d3}
variable C3neg equal 114.994393523269
variable C4neg equal ${d4}
variable C4neg equal -20.5536657734957
variable C5neg equal ${d5}
variable C5neg equal 5.3132798457749
variable C6neg equal ${d6}
variable C6neg equal 22.2007497587735

# Reset box and simulation parameters

clear
OMP_NUM_THREADS environment is not set. Defaulting to 1 thread.
  using 1 OpenMP thread(s) per MPI task
box tilt large

The 'box' command has been removed and will be ignored

read_restart restart_333-HD-100C-11-VASP.equil
Reading restart file ...
  restart file = 10 Sep 2025, LAMMPS = 10 Sep 2025
  restoring atom style full from restart
  triclinic box = (-0.081328363 -0.058306827 -0.07677906) to (15.118478 13.512569 17.684175) with tilt (-7.5580609 -0.15991157 0.081420951)
WARNING: Triclinic box skew is large. LAMMPS will run inefficiently. (src/domain.cpp:221)
  1 by 1 by 1 MPI processor grid
  restoring pair style lj/cut from restart
  restoring bond style harmonic from restart
  restoring angle style hybrid from restart
  restoring dihedral style harmonic from restart
  366 atoms
  408 bonds
  792 angles
  1080 dihedrals
Finding 1-2 1-3 1-4 neighbors ...
  special bond factors lj:    0        0        1       
  special bond factors coul:  0        0        1       
     4 = max # of 1-2 neighbors
    10 = max # of 1-3 neighbors
    14 = max # of special neighbors
  special bonds CPU = 0.000 seconds
  read_restart CPU = 0.001 seconds
include ./input/angles_333-HD-100C-11-VASP.mod
angle_style hybrid fourier cosine/periodic
angle_coeff 1 fourier 221.735285        0.343737        0.374972        0.281246
angle_coeff 2 fourier 157.882480        0.343737        0.374972        0.281246
angle_coeff 3 fourier 114.246973        0.343737        0.374972        0.281246
angle_coeff 4 cosine/periodic 88.853997              -1               3
angle_coeff 5 fourier 90.420412        0.343737        0.374972        0.281246
angle_coeff 6 fourier 75.498766        0.343737        0.374972        0.281246

# Positive deformation

variable delta equal ${up}*${len0}
variable delta equal 0.02*${len0}
variable delta equal 0.02*17.7609541192272
variable deltaxy equal ${up}*xy
variable deltaxy equal 0.02*xy
variable deltaxz equal ${up}*xz
variable deltaxz equal 0.02*xz
variable deltayz equal ${up}*yz
variable deltayz equal 0.02*yz
if "${dir} == 1" then    "change_box all x delta 0 ${delta} xy delta ${deltaxy} xz delta ${deltaxz} remap units box"
if "${dir} == 2" then    "change_box all y delta 0 ${delta} yz delta ${deltayz} remap units box"
if "${dir} == 3" then    "change_box all z delta 0 ${delta} remap units box"
change_box all z delta 0 ${delta} remap units box
change_box all z delta 0 0.355219082384544 remap units box
Changing box ...
WARNING: Triclinic box skew is large. LAMMPS will run inefficiently. (src/domain.cpp:221)
  triclinic box = (-0.081328363 -0.058306827 -0.07677906) to (15.118478 13.512569 18.039394) with tilt (-7.5580609 -0.15991157 0.081420951)
if "${dir} == 4" then    "change_box all yz delta ${delta} remap units box"
if "${dir} == 5" then    "change_box all xz delta ${delta} remap units box"
if "${dir} == 6" then    "change_box all xy delta ${delta} remap units box"

# Relax atoms positions

minimize ${etol} ${ftol} ${maxiter} ${maxeval}
minimize 0 ${ftol} ${maxiter} ${maxeval}
minimize 0 1e-10 ${maxiter} ${maxeval}
minimize 0 1e-10 100000 ${maxeval}
minimize 0 1e-10 100000 100000
Generated 6 of 6 mixed pair_coeff terms from arithmetic mixing rule
Neighbor list info ...
  update: every = 1 steps, delay = 0 steps, check = yes
  max neighbors/atom: 2000, page size: 100000
  master list distance cutoff = 7
  ghost atom cutoff = 7
  binsize = 3.5, bins = 7 4 6
  1 neighbor lists, perpetual/occasional/extra = 1 0 0
  (1) pair lj/cut, perpetual
      attributes: half, newton on
      pair build: half/bin/newton/tri
      stencil: half/bin/3d/tri
      bin: standard
WARNING: Inconsistent image flags
For more information see https://docs.lammps.org/err0027 (src/domain.cpp:1052)
Per MPI rank memory allocation (min/avg/max) = 19.53 | 19.53 | 19.53 Mbytes
   Step          Temp          E_pair         E_mol          TotEng         Press     
    250095   308.2674      -439.59857      1297.085       1192.8801     -28876.895    
    250137   308.2674      -480.0208       1012.866       868.23879     -17255.857    
Loop time of 0.0370328 on 1 procs for 42 steps with 366 atoms

100.0% CPU use with 1 MPI tasks x 1 OpenMP threads

Minimization stats:
  Stopping criterion = linesearch alpha is zero
  Energy initial, next-to-last, final = 
      857.486466400528   532.845197464781   532.845197464781
  Force two-norm initial, final = 711.94896 10.829176
  Force max component initial, final = 99.88788 1.2622979
  Final line search alpha, max atom move = 9.1160022e-11 1.1507111e-10
  Iterations, force evaluations = 42 137

MPI task timing breakdown:
Section |  min time  |  avg time  |  max time  |%varavg| %total
---------------------------------------------------------------
Pair    | 0.028068   | 0.028068   | 0.028068   |   0.0 | 75.79
Bond    | 0.0074973  | 0.0074973  | 0.0074973  |   0.0 | 20.24
Neigh   | 0          | 0          | 0          |   0.0 |  0.00
Comm    | 0.00081425 | 0.00081425 | 0.00081425 |   0.0 |  2.20
Output  | 0          | 0          | 0          |   0.0 |  0.00
Modify  | 0          | 0          | 0          |   0.0 |  0.00
Other   |            | 0.000653   |            |       |  1.76

Nlocal:            366 ave         366 max         366 min
Histogram: 1 0 0 0 0 0 0 0 0 0
Nghost:           2340 ave        2340 max        2340 min
Histogram: 1 0 0 0 0 0 0 0 0 0
Neighs:          24452 ave       24452 max       24452 min
Histogram: 1 0 0 0 0 0 0 0 0 0

Total # of neighbors = 24452
Ave neighs/atom = 66.808743
Ave special neighs/atom = 6.557377
Neighbor list builds = 0
Dangerous builds = 0

# Obtain new stress tensor

variable tmp equal pe
variable e1 equal ${tmp}
variable e1 equal 532.845197464781
variable tmp equal press
variable p1 equal ${tmp}
variable p1 equal -17255.857199524
variable tmp equal pxx
variable pxx1 equal ${tmp}
variable pxx1 equal -9164.772531906
variable tmp equal pyy
variable pyy1 equal ${tmp}
variable pyy1 equal -11672.6450175811
variable tmp equal pzz
variable pzz1 equal ${tmp}
variable pzz1 equal -30930.154049085
variable tmp equal pxy
variable pxy1 equal ${tmp}
variable pxy1 equal 3367.35291105609
variable tmp equal pxz
variable pxz1 equal ${tmp}
variable pxz1 equal -4593.65704147682
variable tmp equal pyz
variable pyz1 equal ${tmp}
variable pyz1 equal 1313.84276580007

# Compute elastic constant from pressure tensor

variable C1pos equal ${d1}
variable C1pos equal 85.256825673903
variable C2pos equal ${d2}
variable C2pos equal 66.942620721865
variable C3pos equal ${d3}
variable C3pos equal 162.145365563024
variable C4pos equal ${d4}
variable C4pos equal 20.2366738915314
variable C5pos equal ${d5}
variable C5pos equal 4.83890069598675
variable C6pos equal ${d6}
variable C6pos equal -20.2315544047035

# Combine positive and negative

variable C1${dir} equal 0.5*(${C1neg}+${C1pos})
variable C13 equal 0.5*(${C1neg}+${C1pos})
variable C13 equal 0.5*(15.3915556051099+${C1pos})
variable C13 equal 0.5*(15.3915556051099+85.256825673903)
variable C2${dir} equal 0.5*(${C2neg}+${C2pos})
variable C23 equal 0.5*(${C2neg}+${C2pos})
variable C23 equal 0.5*(31.3685771637574+${C2pos})
variable C23 equal 0.5*(31.3685771637574+66.942620721865)
variable C3${dir} equal 0.5*(${C3neg}+${C3pos})
variable C33 equal 0.5*(${C3neg}+${C3pos})
variable C33 equal 0.5*(114.994393523269+${C3pos})
variable C33 equal 0.5*(114.994393523269+162.145365563024)
variable C4${dir} equal 0.5*(${C4neg}+${C4pos})
variable C43 equal 0.5*(${C4neg}+${C4pos})
variable C43 equal 0.5*(-20.5536657734957+${C4pos})
variable C43 equal 0.5*(-20.5536657734957+20.2366738915314)
variable C5${dir} equal 0.5*(${C5neg}+${C5pos})
variable C53 equal 0.5*(${C5neg}+${C5pos})
variable C53 equal 0.5*(5.3132798457749+${C5pos})
variable C53 equal 0.5*(5.3132798457749+4.83890069598675)
variable C6${dir} equal 0.5*(${C6neg}+${C6pos})
variable C63 equal 0.5*(${C6neg}+${C6pos})
variable C63 equal 0.5*(22.2007497587735+${C6pos})
variable C63 equal 0.5*(22.2007497587735+-20.2315544047035)

# Delete dir to make sure it is not reused

variable dir delete

# uyz Perturbation

variable dir equal 4
include ./input/displace_333-HD-100C-11-VASP.mod
if "${dir} == 1" then    "variable len0 equal ${lx0}"
if "${dir} == 2" then    "variable len0 equal ${ly0}"
if "${dir} == 3" then    "variable len0 equal ${lz0}"
if "${dir} == 4" then    "variable len0 equal ${lz0}"
variable len0 equal ${lz0}
variable len0 equal 17.7609541192272
if "${dir} == 5" then    "variable len0 equal ${lz0}"
if "${dir} == 6" then    "variable len0 equal ${ly0}"

# Reset box and simulation parameters

clear
OMP_NUM_THREADS environment is not set. Defaulting to 1 thread.
  using 1 OpenMP thread(s) per MPI task
box tilt large

The 'box' command has been removed and will be ignored

read_restart restart_333-HD-100C-11-VASP.equil
Reading restart file ...
  restart file = 10 Sep 2025, LAMMPS = 10 Sep 2025
  restoring atom style full from restart
  triclinic box = (-0.081328363 -0.058306827 -0.07677906) to (15.118478 13.512569 17.684175) with tilt (-7.5580609 -0.15991157 0.081420951)
WARNING: Triclinic box skew is large. LAMMPS will run inefficiently. (src/domain.cpp:221)
  1 by 1 by 1 MPI processor grid
  restoring pair style lj/cut from restart
  restoring bond style harmonic from restart
  restoring angle style hybrid from restart
  restoring dihedral style harmonic from restart
  366 atoms
  408 bonds
  792 angles
  1080 dihedrals
Finding 1-2 1-3 1-4 neighbors ...
  special bond factors lj:    0        0        1       
  special bond factors coul:  0        0        1       
     4 = max # of 1-2 neighbors
    10 = max # of 1-3 neighbors
    14 = max # of special neighbors
  special bonds CPU = 0.000 seconds
  read_restart CPU = 0.001 seconds
include ./input/angles_333-HD-100C-11-VASP.mod
angle_style hybrid fourier cosine/periodic
angle_coeff 1 fourier 221.735285        0.343737        0.374972        0.281246
angle_coeff 2 fourier 157.882480        0.343737        0.374972        0.281246
angle_coeff 3 fourier 114.246973        0.343737        0.374972        0.281246
angle_coeff 4 cosine/periodic 88.853997              -1               3
angle_coeff 5 fourier 90.420412        0.343737        0.374972        0.281246
angle_coeff 6 fourier 75.498766        0.343737        0.374972        0.281246

# Negative deformation

variable delta equal -${up}*${len0}
variable delta equal -0.02*${len0}
variable delta equal -0.02*17.7609541192272
variable deltaxy equal -${up}*xy
variable deltaxy equal -0.02*xy
variable deltaxz equal -${up}*xz
variable deltaxz equal -0.02*xz
variable deltayz equal -${up}*yz
variable deltayz equal -0.02*yz
if "${dir} == 1" then    "change_box all x delta 0 ${delta} xy delta ${deltaxy} xz delta ${deltaxz} remap units box"
if "${dir} == 2" then    "change_box all y delta 0 ${delta} yz delta ${deltayz} remap units box"
if "${dir} == 3" then    "change_box all z delta 0 ${delta} remap units box"
if "${dir} == 4" then    "change_box all yz delta ${delta} remap units box"
change_box all yz delta ${delta} remap units box
change_box all yz delta -0.355219082384544 remap units box
Changing box ...
WARNING: Triclinic box skew is large. LAMMPS will run inefficiently. (src/domain.cpp:221)
  triclinic box = (-0.081328363 -0.058306827 -0.07677906) to (15.118478 13.512569 17.684175) with tilt (-7.5580609 -0.15991157 -0.27379813)
if "${dir} == 5" then    "change_box all xz delta ${delta} remap units box"
if "${dir} == 6" then    "change_box all xy delta ${delta} remap units box"

# Relax atoms positions

minimize ${etol} ${ftol} ${maxiter} ${maxeval}
minimize 0 ${ftol} ${maxiter} ${maxeval}
minimize 0 1e-10 ${maxiter} ${maxeval}
minimize 0 1e-10 100000 ${maxeval}
minimize 0 1e-10 100000 100000
Generated 6 of 6 mixed pair_coeff terms from arithmetic mixing rule
Neighbor list info ...
  update: every = 1 steps, delay = 0 steps, check = yes
  max neighbors/atom: 2000, page size: 100000
  master list distance cutoff = 7
  ghost atom cutoff = 7
  binsize = 3.5, bins = 7 4 6
  1 neighbor lists, perpetual/occasional/extra = 1 0 0
  (1) pair lj/cut, perpetual
      attributes: half, newton on
      pair build: half/bin/newton/tri
      stencil: half/bin/3d/tri
      bin: standard
WARNING: Inconsistent image flags
For more information see https://docs.lammps.org/err0027 (src/domain.cpp:1052)
Per MPI rank memory allocation (min/avg/max) = 19.53 | 19.53 | 19.53 Mbytes
   Step          Temp          E_pair         E_mol          TotEng         Press     
    250095   308.2674      -407.58287      1248.8724      1176.6831      3316.1889    
    250134   308.2674      -445.87785      960.8524       850.36814     -3055.7536    
Loop time of 0.0362668 on 1 procs for 39 steps with 366 atoms

100.0% CPU use with 1 MPI tasks x 1 OpenMP threads

Minimization stats:
  Stopping criterion = linesearch alpha is zero
  Energy initial, next-to-last, final = 
      841.289546802157   514.974545950805   514.974545950805
  Force two-norm initial, final = 692.99872 15.402452
  Force max component initial, final = 85.008178 3.5096957
  Final line search alpha, max atom move = 3.5641031e-11 1.2508917e-10
  Iterations, force evaluations = 39 133

MPI task timing breakdown:
Section |  min time  |  avg time  |  max time  |%varavg| %total
---------------------------------------------------------------
Pair    | 0.027707   | 0.027707   | 0.027707   |   0.0 | 76.40
Bond    | 0.0071866  | 0.0071866  | 0.0071866  |   0.0 | 19.82
Neigh   | 0          | 0          | 0          |   0.0 |  0.00
Comm    | 0.00078814 | 0.00078814 | 0.00078814 |   0.0 |  2.17
Output  | 0          | 0          | 0          |   0.0 |  0.00
Modify  | 0          | 0          | 0          |   0.0 |  0.00
Other   |            | 0.0005849  |            |       |  1.61

Nlocal:            366 ave         366 max         366 min
Histogram: 1 0 0 0 0 0 0 0 0 0
Nghost:           2358 ave        2358 max        2358 min
Histogram: 1 0 0 0 0 0 0 0 0 0
Neighs:          24911 ave       24911 max       24911 min
Histogram: 1 0 0 0 0 0 0 0 0 0

Total # of neighbors = 24911
Ave neighs/atom = 68.062842
Ave special neighs/atom = 6.557377
Neighbor list builds = 0
Dangerous builds = 0

# Obtain new stress tensor

variable tmp equal pxx
variable pxx1 equal ${tmp}
variable pxx1 equal -799.496294651121
variable tmp equal pyy
variable pyy1 equal ${tmp}
variable pyy1 equal -3029.31216561739
variable tmp equal pzz
variable pzz1 equal ${tmp}
variable pzz1 equal -5338.45227360633
variable tmp equal pxy
variable pxy1 equal ${tmp}
variable pxy1 equal 3328.58648729055
variable tmp equal pxz
variable pxz1 equal ${tmp}
variable pxz1 equal -3797.19287600393
variable tmp equal pyz
variable pyz1 equal ${tmp}
variable pyz1 equal 10477.5584891497

# Compute elastic constant from pressure tensor

variable C1neg equal ${d1}
variable C1neg equal -43.4304444876287
variable C2neg equal ${d2}
variable C2neg equal -23.7259564620465
variable C3neg equal ${d3}
variable C3neg equal -34.1868566856303
variable C4neg equal ${d4}
variable C4neg equal 25.5819047252167
variable C5neg equal ${d5}
variable C5neg equal -0.8565798686223
variable C6neg equal ${d6}
variable C6neg equal 20.0377222858758

# Reset box and simulation parameters

clear
OMP_NUM_THREADS environment is not set. Defaulting to 1 thread.
  using 1 OpenMP thread(s) per MPI task
box tilt large

The 'box' command has been removed and will be ignored

read_restart restart_333-HD-100C-11-VASP.equil
Reading restart file ...
  restart file = 10 Sep 2025, LAMMPS = 10 Sep 2025
  restoring atom style full from restart
  triclinic box = (-0.081328363 -0.058306827 -0.07677906) to (15.118478 13.512569 17.684175) with tilt (-7.5580609 -0.15991157 0.081420951)
WARNING: Triclinic box skew is large. LAMMPS will run inefficiently. (src/domain.cpp:221)
  1 by 1 by 1 MPI processor grid
  restoring pair style lj/cut from restart
  restoring bond style harmonic from restart
  restoring angle style hybrid from restart
  restoring dihedral style harmonic from restart
  366 atoms
  408 bonds
  792 angles
  1080 dihedrals
Finding 1-2 1-3 1-4 neighbors ...
  special bond factors lj:    0        0        1       
  special bond factors coul:  0        0        1       
     4 = max # of 1-2 neighbors
    10 = max # of 1-3 neighbors
    14 = max # of special neighbors
  special bonds CPU = 0.000 seconds
  read_restart CPU = 0.001 seconds
include ./input/angles_333-HD-100C-11-VASP.mod
angle_style hybrid fourier cosine/periodic
angle_coeff 1 fourier 221.735285        0.343737        0.374972        0.281246
angle_coeff 2 fourier 157.882480        0.343737        0.374972        0.281246
angle_coeff 3 fourier 114.246973        0.343737        0.374972        0.281246
angle_coeff 4 cosine/periodic 88.853997              -1               3
angle_coeff 5 fourier 90.420412        0.343737        0.374972        0.281246
angle_coeff 6 fourier 75.498766        0.343737        0.374972        0.281246

# Positive deformation

variable delta equal ${up}*${len0}
variable delta equal 0.02*${len0}
variable delta equal 0.02*17.7609541192272
variable deltaxy equal ${up}*xy
variable deltaxy equal 0.02*xy
variable deltaxz equal ${up}*xz
variable deltaxz equal 0.02*xz
variable deltayz equal ${up}*yz
variable deltayz equal 0.02*yz
if "${dir} == 1" then    "change_box all x delta 0 ${delta} xy delta ${deltaxy} xz delta ${deltaxz} remap units box"
if "${dir} == 2" then    "change_box all y delta 0 ${delta} yz delta ${deltayz} remap units box"
if "${dir} == 3" then    "change_box all z delta 0 ${delta} remap units box"
if "${dir} == 4" then    "change_box all yz delta ${delta} remap units box"
change_box all yz delta ${delta} remap units box
change_box all yz delta 0.355219082384544 remap units box
Changing box ...
WARNING: Triclinic box skew is large. LAMMPS will run inefficiently. (src/domain.cpp:221)
  triclinic box = (-0.081328363 -0.058306827 -0.07677906) to (15.118478 13.512569 17.684175) with tilt (-7.5580609 -0.15991157 0.43664003)
if "${dir} == 5" then    "change_box all xz delta ${delta} remap units box"
if "${dir} == 6" then    "change_box all xy delta ${delta} remap units box"

# Relax atoms positions

minimize ${etol} ${ftol} ${maxiter} ${maxeval}
minimize 0 ${ftol} ${maxiter} ${maxeval}
minimize 0 1e-10 ${maxiter} ${maxeval}
minimize 0 1e-10 100000 ${maxeval}
minimize 0 1e-10 100000 100000
Generated 6 of 6 mixed pair_coeff terms from arithmetic mixing rule
Neighbor list info ...
  update: every = 1 steps, delay = 0 steps, check = yes
  max neighbors/atom: 2000, page size: 100000
  master list distance cutoff = 7
  ghost atom cutoff = 7
  binsize = 3.5, bins = 7 5 6
  1 neighbor lists, perpetual/occasional/extra = 1 0 0
  (1) pair lj/cut, perpetual
      attributes: half, newton on
      pair build: half/bin/newton/tri
      stencil: half/bin/3d/tri
      bin: standard
WARNING: Inconsistent image flags
For more information see https://docs.lammps.org/err0027 (src/domain.cpp:1052)
Per MPI rank memory allocation (min/avg/max) = 19.54 | 19.54 | 19.54 Mbytes
   Step          Temp          E_pair         E_mol          TotEng         Press     
    250095   308.2674      -407.12688      1236.3958      1164.6625      3713.0376    
    250133   308.2674      -446.71601      959.07224      847.74981     -2447.9591    
Loop time of 0.0363609 on 1 procs for 38 steps with 366 atoms

100.0% CPU use with 1 MPI tasks x 1 OpenMP threads

Minimization stats:
  Stopping criterion = linesearch alpha is zero
  Energy initial, next-to-last, final = 
      829.268875803207   512.356221632182   512.356221632182
  Force two-norm initial, final = 689.08149 13.508402
  Force max component initial, final = 95.390234 1.6733596
  Final line search alpha, max atom move = 4.1016371e-11 6.8635137e-11
  Iterations, force evaluations = 38 133

MPI task timing breakdown:
Section |  min time  |  avg time  |  max time  |%varavg| %total
---------------------------------------------------------------
Pair    | 0.027802   | 0.027802   | 0.027802   |   0.0 | 76.46
Bond    | 0.0071912  | 0.0071912  | 0.0071912  |   0.0 | 19.78
Neigh   | 0          | 0          | 0          |   0.0 |  0.00
Comm    | 0.00078528 | 0.00078528 | 0.00078528 |   0.0 |  2.16
Output  | 0          | 0          | 0          |   0.0 |  0.00
Modify  | 0          | 0          | 0          |   0.0 |  0.00
Other   |            | 0.0005823  |            |       |  1.60

Nlocal:            366 ave         366 max         366 min
Histogram: 1 0 0 0 0 0 0 0 0 0
Nghost:           2358 ave        2358 max        2358 min
Histogram: 1 0 0 0 0 0 0 0 0 0
Neighs:          24932 ave       24932 max       24932 min
Histogram: 1 0 0 0 0 0 0 0 0 0

Total # of neighbors = 24932
Ave neighs/atom = 68.120219
Ave special neighs/atom = 6.557377
Neighbor list builds = 0
Dangerous builds = 0

# Obtain new stress tensor

variable tmp equal pe
variable e1 equal ${tmp}
variable e1 equal 512.356221632182
variable tmp equal press
variable p1 equal ${tmp}
variable p1 equal -2447.95908766773
variable tmp equal pxx
variable pxx1 equal ${tmp}
variable pxx1 equal 498.686437064681
variable tmp equal pyy
variable pyy1 equal ${tmp}
variable pyy1 equal -3087.4354223346
variable tmp equal pzz
variable pzz1 equal ${tmp}
variable pzz1 equal -4755.12827773327
variable tmp equal pxy
variable pxy1 equal ${tmp}
variable pxy1 equal 3789.64954301929
variable tmp equal pxz
variable pxz1 equal ${tmp}
variable pxz1 equal -3063.75326272601
variable tmp equal pyz
variable pyz1 equal ${tmp}
variable pyz1 equal -8415.63154994701

# Compute elastic constant from pressure tensor

variable C1pos equal ${d1}
variable C1pos equal 36.9395308290497
variable C2pos equal ${d2}
variable C2pos equal 24.0165727456325
variable C3pos equal ${d3}
variable C3pos equal 31.270236706265
variable C4pos equal ${d4}
variable C4pos equal 68.8840454702669
variable C5pos equal ${d5}
variable C5pos equal -2.8106181977673
variable C6pos equal ${d6}
variable C6pos equal -22.3430375645195

# Combine positive and negative

variable C1${dir} equal 0.5*(${C1neg}+${C1pos})
variable C14 equal 0.5*(${C1neg}+${C1pos})
variable C14 equal 0.5*(-43.4304444876287+${C1pos})
variable C14 equal 0.5*(-43.4304444876287+36.9395308290497)
variable C2${dir} equal 0.5*(${C2neg}+${C2pos})
variable C24 equal 0.5*(${C2neg}+${C2pos})
variable C24 equal 0.5*(-23.7259564620465+${C2pos})
variable C24 equal 0.5*(-23.7259564620465+24.0165727456325)
variable C3${dir} equal 0.5*(${C3neg}+${C3pos})
variable C34 equal 0.5*(${C3neg}+${C3pos})
variable C34 equal 0.5*(-34.1868566856303+${C3pos})
variable C34 equal 0.5*(-34.1868566856303+31.270236706265)
variable C4${dir} equal 0.5*(${C4neg}+${C4pos})
variable C44 equal 0.5*(${C4neg}+${C4pos})
variable C44 equal 0.5*(25.5819047252167+${C4pos})
variable C44 equal 0.5*(25.5819047252167+68.8840454702669)
variable C5${dir} equal 0.5*(${C5neg}+${C5pos})
variable C54 equal 0.5*(${C5neg}+${C5pos})
variable C54 equal 0.5*(-0.8565798686223+${C5pos})
variable C54 equal 0.5*(-0.8565798686223+-2.8106181977673)
variable C6${dir} equal 0.5*(${C6neg}+${C6pos})
variable C64 equal 0.5*(${C6neg}+${C6pos})
variable C64 equal 0.5*(20.0377222858758+${C6pos})
variable C64 equal 0.5*(20.0377222858758+-22.3430375645195)

# Delete dir to make sure it is not reused

variable dir delete

# uxz Perturbation

variable dir equal 5
include ./input/displace_333-HD-100C-11-VASP.mod
if "${dir} == 1" then    "variable len0 equal ${lx0}"
if "${dir} == 2" then    "variable len0 equal ${ly0}"
if "${dir} == 3" then    "variable len0 equal ${lz0}"
if "${dir} == 4" then    "variable len0 equal ${lz0}"
if "${dir} == 5" then    "variable len0 equal ${lz0}"
variable len0 equal ${lz0}
variable len0 equal 17.7609541192272
if "${dir} == 6" then    "variable len0 equal ${ly0}"

# Reset box and simulation parameters

clear
OMP_NUM_THREADS environment is not set. Defaulting to 1 thread.
  using 1 OpenMP thread(s) per MPI task
box tilt large

The 'box' command has been removed and will be ignored

read_restart restart_333-HD-100C-11-VASP.equil
Reading restart file ...
  restart file = 10 Sep 2025, LAMMPS = 10 Sep 2025
  restoring atom style full from restart
  triclinic box = (-0.081328363 -0.058306827 -0.07677906) to (15.118478 13.512569 17.684175) with tilt (-7.5580609 -0.15991157 0.081420951)
WARNING: Triclinic box skew is large. LAMMPS will run inefficiently. (src/domain.cpp:221)
  1 by 1 by 1 MPI processor grid
  restoring pair style lj/cut from restart
  restoring bond style harmonic from restart
  restoring angle style hybrid from restart
  restoring dihedral style harmonic from restart
  366 atoms
  408 bonds
  792 angles
  1080 dihedrals
Finding 1-2 1-3 1-4 neighbors ...
  special bond factors lj:    0        0        1       
  special bond factors coul:  0        0        1       
     4 = max # of 1-2 neighbors
    10 = max # of 1-3 neighbors
    14 = max # of special neighbors
  special bonds CPU = 0.000 seconds
  read_restart CPU = 0.001 seconds
include ./input/angles_333-HD-100C-11-VASP.mod
angle_style hybrid fourier cosine/periodic
angle_coeff 1 fourier 221.735285        0.343737        0.374972        0.281246
angle_coeff 2 fourier 157.882480        0.343737        0.374972        0.281246
angle_coeff 3 fourier 114.246973        0.343737        0.374972        0.281246
angle_coeff 4 cosine/periodic 88.853997              -1               3
angle_coeff 5 fourier 90.420412        0.343737        0.374972        0.281246
angle_coeff 6 fourier 75.498766        0.343737        0.374972        0.281246

# Negative deformation

variable delta equal -${up}*${len0}
variable delta equal -0.02*${len0}
variable delta equal -0.02*17.7609541192272
variable deltaxy equal -${up}*xy
variable deltaxy equal -0.02*xy
variable deltaxz equal -${up}*xz
variable deltaxz equal -0.02*xz
variable deltayz equal -${up}*yz
variable deltayz equal -0.02*yz
if "${dir} == 1" then    "change_box all x delta 0 ${delta} xy delta ${deltaxy} xz delta ${deltaxz} remap units box"
if "${dir} == 2" then    "change_box all y delta 0 ${delta} yz delta ${deltayz} remap units box"
if "${dir} == 3" then    "change_box all z delta 0 ${delta} remap units box"
if "${dir} == 4" then    "change_box all yz delta ${delta} remap units box"
if "${dir} == 5" then    "change_box all xz delta ${delta} remap units box"
change_box all xz delta ${delta} remap units box
change_box all xz delta -0.355219082384544 remap units box
Changing box ...
WARNING: Triclinic box skew is large. LAMMPS will run inefficiently. (src/domain.cpp:221)
  triclinic box = (-0.081328363 -0.058306827 -0.07677906) to (15.118478 13.512569 17.684175) with tilt (-7.5580609 -0.51513065 0.081420951)
if "${dir} == 6" then    "change_box all xy delta ${delta} remap units box"

# Relax atoms positions

minimize ${etol} ${ftol} ${maxiter} ${maxeval}
minimize 0 ${ftol} ${maxiter} ${maxeval}
minimize 0 1e-10 ${maxiter} ${maxeval}
minimize 0 1e-10 100000 ${maxeval}
minimize 0 1e-10 100000 100000
Generated 6 of 6 mixed pair_coeff terms from arithmetic mixing rule
Neighbor list info ...
  update: every = 1 steps, delay = 0 steps, check = yes
  max neighbors/atom: 2000, page size: 100000
  master list distance cutoff = 7
  ghost atom cutoff = 7
  binsize = 3.5, bins = 7 4 6
  1 neighbor lists, perpetual/occasional/extra = 1 0 0
  (1) pair lj/cut, perpetual
      attributes: half, newton on
      pair build: half/bin/newton/tri
      stencil: half/bin/3d/tri
      bin: standard
WARNING: Inconsistent image flags
For more information see https://docs.lammps.org/err0027 (src/domain.cpp:1052)
Per MPI rank memory allocation (min/avg/max) = 19.53 | 19.53 | 19.53 Mbytes
   Step          Temp          E_pair         E_mol          TotEng         Press     
    250095   308.2674      -406.73377      1238.1611      1166.8209      4124.7813    
    250136   308.2674      -445.64174      955.19915      844.951       -2250.5252    
Loop time of 0.0381368 on 1 procs for 41 steps with 366 atoms

100.0% CPU use with 1 MPI tasks x 1 OpenMP threads

Minimization stats:
  Stopping criterion = linesearch alpha is zero
  Energy initial, next-to-last, final = 
      831.427318422398   509.557410968706   509.557410968706
  Force two-norm initial, final = 696.4023 12.349614
  Force max component initial, final = 92.94656 1.6494429
  Final line search alpha, max atom move = 4.5102314e-11 7.4393691e-11
  Iterations, force evaluations = 41 141

MPI task timing breakdown:
Section |  min time  |  avg time  |  max time  |%varavg| %total
---------------------------------------------------------------
Pair    | 0.029092   | 0.029092   | 0.029092   |   0.0 | 76.28
Bond    | 0.0076157  | 0.0076157  | 0.0076157  |   0.0 | 19.97
Neigh   | 0          | 0          | 0          |   0.0 |  0.00
Comm    | 0.00081946 | 0.00081946 | 0.00081946 |   0.0 |  2.15
Output  | 0          | 0          | 0          |   0.0 |  0.00
Modify  | 0          | 0          | 0          |   0.0 |  0.00
Other   |            | 0.0006095  |            |       |  1.60

Nlocal:            366 ave         366 max         366 min
Histogram: 1 0 0 0 0 0 0 0 0 0
Nghost:           2358 ave        2358 max        2358 min
Histogram: 1 0 0 0 0 0 0 0 0 0
Neighs:          24917 ave       24917 max       24917 min
Histogram: 1 0 0 0 0 0 0 0 0 0

Total # of neighbors = 24917
Ave neighs/atom = 68.079235
Ave special neighs/atom = 6.557377
Neighbor list builds = 0
Dangerous builds = 0

# Obtain new stress tensor

variable tmp equal pxx
variable pxx1 equal ${tmp}
variable pxx1 equal 497.017863063677
variable tmp equal pyy
variable pyy1 equal ${tmp}
variable pyy1 equal -2935.19656760049
variable tmp equal pzz
variable pzz1 equal ${tmp}
variable pzz1 equal -4313.39688939461
variable tmp equal pxy
variable pxy1 equal ${tmp}
variable pxy1 equal 3729.13301488364
variable tmp equal pxz
variable pxz1 equal ${tmp}
variable pxz1 equal 6095.01946318245
variable tmp equal pyz
variable pyz1 equal ${tmp}
variable pyz1 equal 640.516406445107

# Compute elastic constant from pressure tensor

variable C1neg equal ${d1}
variable C1neg equal -36.9478736990547
variable C2neg equal ${d2}
variable C2neg equal -23.255378471962
variable C3neg equal ${d3}
variable C3neg equal -29.0615797645717
variable C4neg equal ${d4}
variable C4neg equal -23.6033056883063
variable C5neg equal ${d5}
variable C5neg equal 48.6044818273096
variable C6neg equal ${d6}
variable C6neg equal 22.0404549238413

# Reset box and simulation parameters

clear
OMP_NUM_THREADS environment is not set. Defaulting to 1 thread.
  using 1 OpenMP thread(s) per MPI task
box tilt large

The 'box' command has been removed and will be ignored

read_restart restart_333-HD-100C-11-VASP.equil
Reading restart file ...
  restart file = 10 Sep 2025, LAMMPS = 10 Sep 2025
  restoring atom style full from restart
  triclinic box = (-0.081328363 -0.058306827 -0.07677906) to (15.118478 13.512569 17.684175) with tilt (-7.5580609 -0.15991157 0.081420951)
WARNING: Triclinic box skew is large. LAMMPS will run inefficiently. (src/domain.cpp:221)
  1 by 1 by 1 MPI processor grid
  restoring pair style lj/cut from restart
  restoring bond style harmonic from restart
  restoring angle style hybrid from restart
  restoring dihedral style harmonic from restart
  366 atoms
  408 bonds
  792 angles
  1080 dihedrals
Finding 1-2 1-3 1-4 neighbors ...
  special bond factors lj:    0        0        1       
  special bond factors coul:  0        0        1       
     4 = max # of 1-2 neighbors
    10 = max # of 1-3 neighbors
    14 = max # of special neighbors
  special bonds CPU = 0.000 seconds
  read_restart CPU = 0.001 seconds
include ./input/angles_333-HD-100C-11-VASP.mod
angle_style hybrid fourier cosine/periodic
angle_coeff 1 fourier 221.735285        0.343737        0.374972        0.281246
angle_coeff 2 fourier 157.882480        0.343737        0.374972        0.281246
angle_coeff 3 fourier 114.246973        0.343737        0.374972        0.281246
angle_coeff 4 cosine/periodic 88.853997              -1               3
angle_coeff 5 fourier 90.420412        0.343737        0.374972        0.281246
angle_coeff 6 fourier 75.498766        0.343737        0.374972        0.281246

# Positive deformation

variable delta equal ${up}*${len0}
variable delta equal 0.02*${len0}
variable delta equal 0.02*17.7609541192272
variable deltaxy equal ${up}*xy
variable deltaxy equal 0.02*xy
variable deltaxz equal ${up}*xz
variable deltaxz equal 0.02*xz
variable deltayz equal ${up}*yz
variable deltayz equal 0.02*yz
if "${dir} == 1" then    "change_box all x delta 0 ${delta} xy delta ${deltaxy} xz delta ${deltaxz} remap units box"
if "${dir} == 2" then    "change_box all y delta 0 ${delta} yz delta ${deltayz} remap units box"
if "${dir} == 3" then    "change_box all z delta 0 ${delta} remap units box"
if "${dir} == 4" then    "change_box all yz delta ${delta} remap units box"
if "${dir} == 5" then    "change_box all xz delta ${delta} remap units box"
change_box all xz delta ${delta} remap units box
change_box all xz delta 0.355219082384544 remap units box
Changing box ...
WARNING: Triclinic box skew is large. LAMMPS will run inefficiently. (src/domain.cpp:221)
  triclinic box = (-0.081328363 -0.058306827 -0.07677906) to (15.118478 13.512569 17.684175) with tilt (-7.5580609 0.19530751 0.081420951)
if "${dir} == 6" then    "change_box all xy delta ${delta} remap units box"

# Relax atoms positions

minimize ${etol} ${ftol} ${maxiter} ${maxeval}
minimize 0 ${ftol} ${maxiter} ${maxeval}
minimize 0 1e-10 ${maxiter} ${maxeval}
minimize 0 1e-10 100000 ${maxeval}
minimize 0 1e-10 100000 100000
Generated 6 of 6 mixed pair_coeff terms from arithmetic mixing rule
Neighbor list info ...
  update: every = 1 steps, delay = 0 steps, check = yes
  max neighbors/atom: 2000, page size: 100000
  master list distance cutoff = 7
  ghost atom cutoff = 7
  binsize = 3.5, bins = 7 4 6
  1 neighbor lists, perpetual/occasional/extra = 1 0 0
  (1) pair lj/cut, perpetual
      attributes: half, newton on
      pair build: half/bin/newton/tri
      stencil: half/bin/3d/tri
      bin: standard
WARNING: Inconsistent image flags
For more information see https://docs.lammps.org/err0027 (src/domain.cpp:1052)
Per MPI rank memory allocation (min/avg/max) = 19.53 | 19.53 | 19.53 Mbytes
   Step          Temp          E_pair         E_mol          TotEng         Press     
    250095   308.2674      -408.83668      1248.2009      1174.7579      2850.159     
    250124   308.2674      -446.00548      966.13351      855.52162     -2647.6934    
Loop time of 0.0310891 on 1 procs for 29 steps with 366 atoms

100.0% CPU use with 1 MPI tasks x 1 OpenMP threads

Minimization stats:
  Stopping criterion = linesearch alpha is zero
  Energy initial, next-to-last, final = 
      839.364257884881   520.128028173054   520.128028173054
  Force two-norm initial, final = 688.98061 18.763322
  Force max component initial, final = 87.177185 2.9659886
  Final line search alpha, max atom move = 1.9442927e-11 5.7667501e-11
  Iterations, force evaluations = 29 115

MPI task timing breakdown:
Section |  min time  |  avg time  |  max time  |%varavg| %total
---------------------------------------------------------------
Pair    | 0.023753   | 0.023753   | 0.023753   |   0.0 | 76.40
Bond    | 0.0061718  | 0.0061718  | 0.0061718  |   0.0 | 19.85
Neigh   | 0          | 0          | 0          |   0.0 |  0.00
Comm    | 0.00068555 | 0.00068555 | 0.00068555 |   0.0 |  2.21
Output  | 0          | 0          | 0          |   0.0 |  0.00
Modify  | 0          | 0          | 0          |   0.0 |  0.00
Other   |            | 0.0004783  |            |       |  1.54

Nlocal:            366 ave         366 max         366 min
Histogram: 1 0 0 0 0 0 0 0 0 0
Nghost:           2358 ave        2358 max        2358 min
Histogram: 1 0 0 0 0 0 0 0 0 0
Neighs:          24904 ave       24904 max       24904 min
Histogram: 1 0 0 0 0 0 0 0 0 0

Total # of neighbors = 24904
Ave neighs/atom = 68.043716
Ave special neighs/atom = 6.557377
Neighbor list builds = 0
Dangerous builds = 0

# Obtain new stress tensor

variable tmp equal pe
variable e1 equal ${tmp}
variable e1 equal 520.128028173054
variable tmp equal press
variable p1 equal ${tmp}
variable p1 equal -2647.69344137398
variable tmp equal pxx
variable pxx1 equal ${tmp}
variable pxx1 equal -235.817291381844
variable tmp equal pyy
variable pyy1 equal ${tmp}
variable pyy1 equal -2649.50626052755
variable tmp equal pzz
variable pzz1 equal ${tmp}
variable pzz1 equal -5057.75677221255
variable tmp equal pxy
variable pxy1 equal ${tmp}
variable pxy1 equal 3239.11959494539
variable tmp equal pxz
variable pxz1 equal ${tmp}
variable pxz1 equal -14292.1314028003
variable tmp equal pyz
variable pyz1 equal ${tmp}
variable pyz1 equal 1845.17977092722

# Compute elastic constant from pressure tensor

variable C1pos equal ${d1}
variable C1pos equal 40.6120494712823
variable C2pos equal ${d2}
variable C2pos equal 21.8269269365972
variable C3pos equal ${d3}
variable C3pos equal 32.7833791786614
variable C4pos equal ${d4}
variable C4pos equal 17.5799888658957
variable C5pos equal ${d5}
variable C5pos equal 53.3312725026042
variable C6pos equal ${d6}
variable C6pos equal -19.59038782415

# Combine positive and negative

variable C1${dir} equal 0.5*(${C1neg}+${C1pos})
variable C15 equal 0.5*(${C1neg}+${C1pos})
variable C15 equal 0.5*(-36.9478736990547+${C1pos})
variable C15 equal 0.5*(-36.9478736990547+40.6120494712823)
variable C2${dir} equal 0.5*(${C2neg}+${C2pos})
variable C25 equal 0.5*(${C2neg}+${C2pos})
variable C25 equal 0.5*(-23.255378471962+${C2pos})
variable C25 equal 0.5*(-23.255378471962+21.8269269365972)
variable C3${dir} equal 0.5*(${C3neg}+${C3pos})
variable C35 equal 0.5*(${C3neg}+${C3pos})
variable C35 equal 0.5*(-29.0615797645717+${C3pos})
variable C35 equal 0.5*(-29.0615797645717+32.7833791786614)
variable C4${dir} equal 0.5*(${C4neg}+${C4pos})
variable C45 equal 0.5*(${C4neg}+${C4pos})
variable C45 equal 0.5*(-23.6033056883063+${C4pos})
variable C45 equal 0.5*(-23.6033056883063+17.5799888658957)
variable C5${dir} equal 0.5*(${C5neg}+${C5pos})
variable C55 equal 0.5*(${C5neg}+${C5pos})
variable C55 equal 0.5*(48.6044818273096+${C5pos})
variable C55 equal 0.5*(48.6044818273096+53.3312725026042)
variable C6${dir} equal 0.5*(${C6neg}+${C6pos})
variable C65 equal 0.5*(${C6neg}+${C6pos})
variable C65 equal 0.5*(22.0404549238413+${C6pos})
variable C65 equal 0.5*(22.0404549238413+-19.59038782415)

# Delete dir to make sure it is not reused

variable dir delete

# uxy Perturbation

variable dir equal 6
include ./input/displace_333-HD-100C-11-VASP.mod
if "${dir} == 1" then    "variable len0 equal ${lx0}"
if "${dir} == 2" then    "variable len0 equal ${ly0}"
if "${dir} == 3" then    "variable len0 equal ${lz0}"
if "${dir} == 4" then    "variable len0 equal ${lz0}"
if "${dir} == 5" then    "variable len0 equal ${lz0}"
if "${dir} == 6" then    "variable len0 equal ${ly0}"
variable len0 equal ${ly0}
variable len0 equal 13.5708756533325

# Reset box and simulation parameters

clear
OMP_NUM_THREADS environment is not set. Defaulting to 1 thread.
  using 1 OpenMP thread(s) per MPI task
box tilt large

The 'box' command has been removed and will be ignored

read_restart restart_333-HD-100C-11-VASP.equil
Reading restart file ...
  restart file = 10 Sep 2025, LAMMPS = 10 Sep 2025
  restoring atom style full from restart
  triclinic box = (-0.081328363 -0.058306827 -0.07677906) to (15.118478 13.512569 17.684175) with tilt (-7.5580609 -0.15991157 0.081420951)
WARNING: Triclinic box skew is large. LAMMPS will run inefficiently. (src/domain.cpp:221)
  1 by 1 by 1 MPI processor grid
  restoring pair style lj/cut from restart
  restoring bond style harmonic from restart
  restoring angle style hybrid from restart
  restoring dihedral style harmonic from restart
  366 atoms
  408 bonds
  792 angles
  1080 dihedrals
Finding 1-2 1-3 1-4 neighbors ...
  special bond factors lj:    0        0        1       
  special bond factors coul:  0        0        1       
     4 = max # of 1-2 neighbors
    10 = max # of 1-3 neighbors
    14 = max # of special neighbors
  special bonds CPU = 0.000 seconds
  read_restart CPU = 0.001 seconds
include ./input/angles_333-HD-100C-11-VASP.mod
angle_style hybrid fourier cosine/periodic
angle_coeff 1 fourier 221.735285        0.343737        0.374972        0.281246
angle_coeff 2 fourier 157.882480        0.343737        0.374972        0.281246
angle_coeff 3 fourier 114.246973        0.343737        0.374972        0.281246
angle_coeff 4 cosine/periodic 88.853997              -1               3
angle_coeff 5 fourier 90.420412        0.343737        0.374972        0.281246
angle_coeff 6 fourier 75.498766        0.343737        0.374972        0.281246

# Negative deformation

variable delta equal -${up}*${len0}
variable delta equal -0.02*${len0}
variable delta equal -0.02*13.5708756533325
variable deltaxy equal -${up}*xy
variable deltaxy equal -0.02*xy
variable deltaxz equal -${up}*xz
variable deltaxz equal -0.02*xz
variable deltayz equal -${up}*yz
variable deltayz equal -0.02*yz
if "${dir} == 1" then    "change_box all x delta 0 ${delta} xy delta ${deltaxy} xz delta ${deltaxz} remap units box"
if "${dir} == 2" then    "change_box all y delta 0 ${delta} yz delta ${deltayz} remap units box"
if "${dir} == 3" then    "change_box all z delta 0 ${delta} remap units box"
if "${dir} == 4" then    "change_box all yz delta ${delta} remap units box"
if "${dir} == 5" then    "change_box all xz delta ${delta} remap units box"
if "${dir} == 6" then    "change_box all xy delta ${delta} remap units box"
change_box all xy delta ${delta} remap units box
change_box all xy delta -0.27141751306665 remap units box
Changing box ...
WARNING: Triclinic box skew is large. LAMMPS will run inefficiently. (src/domain.cpp:221)
  triclinic box = (-0.081328363 -0.058306827 -0.07677906) to (15.118478 13.512569 17.684175) with tilt (-7.8294784 -0.15991157 0.081420951)

# Relax atoms positions

minimize ${etol} ${ftol} ${maxiter} ${maxeval}
minimize 0 ${ftol} ${maxiter} ${maxeval}
minimize 0 1e-10 ${maxiter} ${maxeval}
minimize 0 1e-10 100000 ${maxeval}
minimize 0 1e-10 100000 100000
Generated 6 of 6 mixed pair_coeff terms from arithmetic mixing rule
Neighbor list info ...
  update: every = 1 steps, delay = 0 steps, check = yes
  max neighbors/atom: 2000, page size: 100000
  master list distance cutoff = 7
  ghost atom cutoff = 7
  binsize = 3.5, bins = 7 4 6
  1 neighbor lists, perpetual/occasional/extra = 1 0 0
  (1) pair lj/cut, perpetual
      attributes: half, newton on
      pair build: half/bin/newton/tri
      stencil: half/bin/3d/tri
      bin: standard
WARNING: Inconsistent image flags
For more information see https://docs.lammps.org/err0027 (src/domain.cpp:1052)
Per MPI rank memory allocation (min/avg/max) = 19.53 | 19.53 | 19.53 Mbytes
   Step          Temp          E_pair         E_mol          TotEng         Press     
    250095   308.2674      -404.91401      1239.344       1169.8236      3413.3787    
    250150   308.2674      -444.58305      960.76846      851.579       -2962.3396    
Loop time of 0.0435141 on 1 procs for 55 steps with 366 atoms

100.0% CPU use with 1 MPI tasks x 1 OpenMP threads

Minimization stats:
  Stopping criterion = linesearch alpha is zero
  Energy initial, next-to-last, final = 
      834.430023925813    516.18541079027    516.18541079027
  Force two-norm initial, final = 685.19989 8.54883
  Force max component initial, final = 84.153239 1.308661
  Final line search alpha, max atom move = 1.5396938e-10 2.0149373e-10
  Iterations, force evaluations = 55 161

MPI task timing breakdown:
Section |  min time  |  avg time  |  max time  |%varavg| %total
---------------------------------------------------------------
Pair    | 0.033189   | 0.033189   | 0.033189   |   0.0 | 76.27
Bond    | 0.0086758  | 0.0086758  | 0.0086758  |   0.0 | 19.94
Neigh   | 0          | 0          | 0          |   0.0 |  0.00
Comm    | 0.00092805 | 0.00092805 | 0.00092805 |   0.0 |  2.13
Output  | 0          | 0          | 0          |   0.0 |  0.00
Modify  | 0          | 0          | 0          |   0.0 |  0.00
Other   |            | 0.0007214  |            |       |  1.66

Nlocal:            366 ave         366 max         366 min
Histogram: 1 0 0 0 0 0 0 0 0 0
Nghost:           2362 ave        2362 max        2362 min
Histogram: 1 0 0 0 0 0 0 0 0 0
Neighs:          24916 ave       24916 max       24916 min
Histogram: 1 0 0 0 0 0 0 0 0 0

Total # of neighbors = 24916
Ave neighs/atom = 68.076503
Ave special neighs/atom = 6.557377
Neighbor list builds = 0
Dangerous builds = 0

# Obtain new stress tensor

variable tmp equal pxx
variable pxx1 equal ${tmp}
variable pxx1 equal 487.930804774447
variable tmp equal pyy
variable pyy1 equal ${tmp}
variable pyy1 equal -4360.56444959626
variable tmp equal pzz
variable pzz1 equal ${tmp}
variable pzz1 equal -5014.38515737423
variable tmp equal pxy
variable pxy1 equal ${tmp}
variable pxy1 equal 12101.4520146441
variable tmp equal pxz
variable pxz1 equal ${tmp}
variable pxz1 equal -3207.61250161137
variable tmp equal pyz
variable pyz1 equal ${tmp}
variable pyz1 equal 347.795419262495

# Compute elastic constant from pressure tensor

variable C1neg equal ${d1}
variable C1neg equal -36.9933089905008
variable C2neg equal ${d2}
variable C2neg equal -30.3822178819408
variable C3neg equal ${d3}
variable C3neg equal -32.5665211044698
variable C4neg equal ${d4}
variable C4neg equal -25.0669106242193
variable C5neg equal ${d5}
variable C5neg equal 2.0913220033405
variable C6neg equal ${d6}
variable C6neg equal 63.9020499226436

# Reset box and simulation parameters

clear
OMP_NUM_THREADS environment is not set. Defaulting to 1 thread.
  using 1 OpenMP thread(s) per MPI task
box tilt large

The 'box' command has been removed and will be ignored

read_restart restart_333-HD-100C-11-VASP.equil
Reading restart file ...
  restart file = 10 Sep 2025, LAMMPS = 10 Sep 2025
  restoring atom style full from restart
  triclinic box = (-0.081328363 -0.058306827 -0.07677906) to (15.118478 13.512569 17.684175) with tilt (-7.5580609 -0.15991157 0.081420951)
WARNING: Triclinic box skew is large. LAMMPS will run inefficiently. (src/domain.cpp:221)
  1 by 1 by 1 MPI processor grid
  restoring pair style lj/cut from restart
  restoring bond style harmonic from restart
  restoring angle style hybrid from restart
  restoring dihedral style harmonic from restart
  366 atoms
  408 bonds
  792 angles
  1080 dihedrals
Finding 1-2 1-3 1-4 neighbors ...
  special bond factors lj:    0        0        1       
  special bond factors coul:  0        0        1       
     4 = max # of 1-2 neighbors
    10 = max # of 1-3 neighbors
    14 = max # of special neighbors
  special bonds CPU = 0.000 seconds
  read_restart CPU = 0.001 seconds
include ./input/angles_333-HD-100C-11-VASP.mod
angle_style hybrid fourier cosine/periodic
angle_coeff 1 fourier 221.735285        0.343737        0.374972        0.281246
angle_coeff 2 fourier 157.882480        0.343737        0.374972        0.281246
angle_coeff 3 fourier 114.246973        0.343737        0.374972        0.281246
angle_coeff 4 cosine/periodic 88.853997              -1               3
angle_coeff 5 fourier 90.420412        0.343737        0.374972        0.281246
angle_coeff 6 fourier 75.498766        0.343737        0.374972        0.281246

# Positive deformation

variable delta equal ${up}*${len0}
variable delta equal 0.02*${len0}
variable delta equal 0.02*13.5708756533325
variable deltaxy equal ${up}*xy
variable deltaxy equal 0.02*xy
variable deltaxz equal ${up}*xz
variable deltaxz equal 0.02*xz
variable deltayz equal ${up}*yz
variable deltayz equal 0.02*yz
if "${dir} == 1" then    "change_box all x delta 0 ${delta} xy delta ${deltaxy} xz delta ${deltaxz} remap units box"
if "${dir} == 2" then    "change_box all y delta 0 ${delta} yz delta ${deltayz} remap units box"
if "${dir} == 3" then    "change_box all z delta 0 ${delta} remap units box"
if "${dir} == 4" then    "change_box all yz delta ${delta} remap units box"
if "${dir} == 5" then    "change_box all xz delta ${delta} remap units box"
if "${dir} == 6" then    "change_box all xy delta ${delta} remap units box"
change_box all xy delta ${delta} remap units box
change_box all xy delta 0.27141751306665 remap units box
Changing box ...
WARNING: Triclinic box skew is large. LAMMPS will run inefficiently. (src/domain.cpp:221)
  triclinic box = (-0.081328363 -0.058306827 -0.07677906) to (15.118478 13.512569 17.684175) with tilt (-7.2866434 -0.15991157 0.081420951)

# Relax atoms positions

minimize ${etol} ${ftol} ${maxiter} ${maxeval}
minimize 0 ${ftol} ${maxiter} ${maxeval}
minimize 0 1e-10 ${maxiter} ${maxeval}
minimize 0 1e-10 100000 ${maxeval}
minimize 0 1e-10 100000 100000
Generated 6 of 6 mixed pair_coeff terms from arithmetic mixing rule
Neighbor list info ...
  update: every = 1 steps, delay = 0 steps, check = yes
  max neighbors/atom: 2000, page size: 100000
  master list distance cutoff = 7
  ghost atom cutoff = 7
  binsize = 3.5, bins = 7 4 6
  1 neighbor lists, perpetual/occasional/extra = 1 0 0
  (1) pair lj/cut, perpetual
      attributes: half, newton on
      pair build: half/bin/newton/tri
      stencil: half/bin/3d/tri
      bin: standard
WARNING: Inconsistent image flags
For more information see https://docs.lammps.org/err0027 (src/domain.cpp:1052)
Per MPI rank memory allocation (min/avg/max) = 19.53 | 19.53 | 19.53 Mbytes
   Step          Temp          E_pair         E_mol          TotEng         Press     
    250095   308.2674      -409.26818      1243.8596      1169.985       3622.7064    
    250135   308.2674      -448.96966      957.69134      844.11528     -2635.0137    
Loop time of 0.0367516 on 1 procs for 40 steps with 366 atoms

100.0% CPU use with 1 MPI tasks x 1 OpenMP threads

Minimization stats:
  Stopping criterion = linesearch alpha is zero
  Energy initial, next-to-last, final = 
       834.59140242785   508.721687164213   508.721687164213
  Force two-norm initial, final = 698.03061 13.3609
  Force max component initial, final = 95.69216 1.9118747
  Final line search alpha, max atom move = 3.8792085e-11 7.4165606e-11
  Iterations, force evaluations = 40 135

MPI task timing breakdown:
Section |  min time  |  avg time  |  max time  |%varavg| %total
---------------------------------------------------------------
Pair    | 0.028091   | 0.028091   | 0.028091   |   0.0 | 76.43
Bond    | 0.0072981  | 0.0072981  | 0.0072981  |   0.0 | 19.86
Neigh   | 0          | 0          | 0          |   0.0 |  0.00
Comm    | 0.00076282 | 0.00076282 | 0.00076282 |   0.0 |  2.08
Output  | 0          | 0          | 0          |   0.0 |  0.00
Modify  | 0          | 0          | 0          |   0.0 |  0.00
Other   |            | 0.0006     |            |       |  1.63

Nlocal:            366 ave         366 max         366 min
Histogram: 1 0 0 0 0 0 0 0 0 0
Nghost:           2344 ave        2344 max        2344 min
Histogram: 1 0 0 0 0 0 0 0 0 0
Neighs:          24894 ave       24894 max       24894 min
Histogram: 1 0 0 0 0 0 0 0 0 0

Total # of neighbors = 24894
Ave neighs/atom = 68.016393
Ave special neighs/atom = 6.557377
Neighbor list builds = 0
Dangerous builds = 0

# Obtain new stress tensor

variable tmp equal pe
variable e1 equal ${tmp}
variable e1 equal 508.721687164213
variable tmp equal press
variable p1 equal ${tmp}
variable p1 equal -2635.01368643844
variable tmp equal pxx
variable pxx1 equal ${tmp}
variable pxx1 equal -228.579658876605
variable tmp equal pyy
variable pyy1 equal ${tmp}
variable pyy1 equal -2259.56748180747
variable tmp equal pzz
variable pzz1 equal ${tmp}
variable pzz1 equal -5416.89391863125
variable tmp equal pxy
variable pxy1 equal ${tmp}
variable pxy1 equal -4922.99333218066
variable tmp equal pxz
variable pxz1 equal ${tmp}
variable pxz1 equal -3492.20165271149
variable tmp equal pyz
variable pyz1 equal ${tmp}
variable pyz1 equal 1315.36230497952

# Compute elastic constant from pressure tensor

variable C1pos equal ${d1}
variable C1pos equal 40.5758613087561
variable C2pos equal ${d2}
variable C2pos equal 19.8772330429968
variable C3pos equal ${d3}
variable C3pos equal 34.5790649107549
variable C4pos equal ${d4}
variable C4pos equal 20.2290761956342
variable C5pos equal ${d5}
variable C5pos equal -0.668376247839899
variable C6pos equal ${d6}
variable C6pos equal 21.2201768114802

# Combine positive and negative

variable C1${dir} equal 0.5*(${C1neg}+${C1pos})
variable C16 equal 0.5*(${C1neg}+${C1pos})
variable C16 equal 0.5*(-36.9933089905008+${C1pos})
variable C16 equal 0.5*(-36.9933089905008+40.5758613087561)
variable C2${dir} equal 0.5*(${C2neg}+${C2pos})
variable C26 equal 0.5*(${C2neg}+${C2pos})
variable C26 equal 0.5*(-30.3822178819408+${C2pos})
variable C26 equal 0.5*(-30.3822178819408+19.8772330429968)
variable C3${dir} equal 0.5*(${C3neg}+${C3pos})
variable C36 equal 0.5*(${C3neg}+${C3pos})
variable C36 equal 0.5*(-32.5665211044698+${C3pos})
variable C36 equal 0.5*(-32.5665211044698+34.5790649107549)
variable C4${dir} equal 0.5*(${C4neg}+${C4pos})
variable C46 equal 0.5*(${C4neg}+${C4pos})
variable C46 equal 0.5*(-25.0669106242193+${C4pos})
variable C46 equal 0.5*(-25.0669106242193+20.2290761956342)
variable C5${dir} equal 0.5*(${C5neg}+${C5pos})
variable C56 equal 0.5*(${C5neg}+${C5pos})
variable C56 equal 0.5*(2.0913220033405+${C5pos})
variable C56 equal 0.5*(2.0913220033405+-0.668376247839899)
variable C6${dir} equal 0.5*(${C6neg}+${C6pos})
variable C66 equal 0.5*(${C6neg}+${C6pos})
variable C66 equal 0.5*(63.9020499226436+${C6pos})
variable C66 equal 0.5*(63.9020499226436+21.2201768114802)

# Delete dir to make sure it is not reused

variable dir delete

# Output final values

variable C11all equal ${C11}
variable C11all equal 131.93157235219
variable C22all equal ${C22}
variable C22all equal 135.725299787678
variable C33all equal ${C33}
variable C33all equal 138.569879543146

variable C12all equal 0.5*(${C12}+${C21})
variable C12all equal 0.5*(47.3517729485428+${C21})
variable C12all equal 0.5*(47.3517729485428+47.4760779807042)
variable C13all equal 0.5*(${C13}+${C31})
variable C13all equal 0.5*(50.3241906395064+${C31})
variable C13all equal 0.5*(50.3241906395064+51.6653741912554)
variable C23all equal 0.5*(${C23}+${C32})
variable C23all equal 0.5*(49.1555989428112+${C32})
variable C23all equal 0.5*(49.1555989428112+45.2878098579728)

variable C44all equal ${C44}
variable C44all equal 47.2329750977418
variable C55all equal ${C55}
variable C55all equal 50.9678771649569
variable C66all equal ${C66}
variable C66all equal 42.5611133670619

variable C14all equal 0.5*(${C14}+${C41})
variable C14all equal 0.5*(-3.2454568292895+${C41})
variable C14all equal 0.5*(-3.2454568292895+-1.0301769626027)
variable C15all equal 0.5*(${C15}+${C51})
variable C15all equal 0.5*(1.8320878861138+${C51})
variable C15all equal 0.5*(1.8320878861138+2.4389062854819)
variable C16all equal 0.5*(${C16}+${C61})
variable C16all equal 0.5*(1.79127615912765+${C61})
variable C16all equal 0.5*(1.79127615912765+1.13318398778765)

variable C24all equal 0.5*(${C24}+${C42})
variable C24all equal 0.5*(0.145308141793+${C42})
variable C24all equal 0.5*(0.145308141793+-1.58027476826715)
variable C25all equal 0.5*(${C25}+${C52})
variable C25all equal 0.5*(-0.7142257676824+${C52})
variable C25all equal 0.5*(-0.7142257676824+0.92776514316195)
variable C26all equal 0.5*(${C26}+${C62})
variable C26all equal 0.5*(-5.252492419472+${C62})
variable C26all equal 0.5*(-5.252492419472+-2.99046943410615)

variable C34all equal 0.5*(${C34}+${C43})
variable C34all equal 0.5*(-1.45830998968265+${C43})
variable C34all equal 0.5*(-1.45830998968265+-0.158495940982149)
variable C35all equal 0.5*(${C35}+${C53})
variable C35all equal 0.5*(1.86089970704485+${C53})
variable C35all equal 0.5*(1.86089970704485+5.07609027088083)
variable C36all equal 0.5*(${C36}+${C63})
variable C36all equal 0.5*(1.00627190314255+${C63})
variable C36all equal 0.5*(1.00627190314255+0.984597677035001)

variable C45all equal 0.5*(${C45}+${C54})
variable C45all equal 0.5*(-3.0116584112053+${C54})
variable C45all equal 0.5*(-3.0116584112053+-1.8335990331948)
variable C46all equal 0.5*(${C46}+${C64})
variable C46all equal 0.5*(-2.41891721429255+${C64})
variable C46all equal 0.5*(-2.41891721429255+-1.15265763932185)
variable C56all equal 0.5*(${C56}+${C65})
variable C56all equal 0.5*(0.7114728777503+${C65})
variable C56all equal 0.5*(0.7114728777503+1.22503354984565)

# Average moduli for cubic crystals

variable C11cubic equal (${C11all}+${C22all}+${C33all})/3.0
variable C11cubic equal (131.93157235219+${C22all}+${C33all})/3.0
variable C11cubic equal (131.93157235219+135.725299787678+${C33all})/3.0
variable C11cubic equal (131.93157235219+135.725299787678+138.569879543146)/3.0
variable C12cubic equal (${C12all}+${C13all}+${C23all})/3.0
variable C12cubic equal (47.4139254646235+${C13all}+${C23all})/3.0
variable C12cubic equal (47.4139254646235+50.9947824153809+${C23all})/3.0
variable C12cubic equal (47.4139254646235+50.9947824153809+47.221704400392)/3.0
variable C44cubic equal (${C44all}+${C55all}+${C66all})/3.0
variable C44cubic equal (47.2329750977418+${C55all}+${C66all})/3.0
variable C44cubic equal (47.2329750977418+50.9678771649569+${C66all})/3.0
variable C44cubic equal (47.2329750977418+50.9678771649569+42.5611133670619)/3.0

variable bulkmodulus equal (${C11cubic}+2*${C12cubic})/3.0
variable bulkmodulus equal (135.408917227671+2*${C12cubic})/3.0
variable bulkmodulus equal (135.408917227671+2*48.5434707601321)/3.0
variable shearmodulus1 equal ${C44cubic}
variable shearmodulus1 equal 46.9206552099202
variable shearmodulus2 equal (${C11cubic}-${C12cubic})/2.0
variable shearmodulus2 equal (135.408917227671-${C12cubic})/2.0
variable shearmodulus2 equal (135.408917227671-48.5434707601321)/2.0
variable poissonratio equal 1.0/(1.0+${C11cubic}/${C12cubic})
variable poissonratio equal 1.0/(1.0+135.408917227671/${C12cubic})
variable poissonratio equal 1.0/(1.0+135.408917227671/48.5434707601321)

print "Elastic Constant 1 1 = ${C11all}"
Elastic Constant 1 1 = 131.93157235219
print "Elastic Constant 2 2 = ${C22all}"
Elastic Constant 2 2 = 135.725299787678
print "Elastic Constant 3 3 = ${C33all}"
Elastic Constant 3 3 = 138.569879543146

print "Elastic Constant 1 2 = ${C12all}"
Elastic Constant 1 2 = 47.4139254646235
print "Elastic Constant 1 3 = ${C13all}"
Elastic Constant 1 3 = 50.9947824153809
print "Elastic Constant 2 3 = ${C23all}"
Elastic Constant 2 3 = 47.221704400392

print "Elastic Constant 4 4 = ${C44all}"
Elastic Constant 4 4 = 47.2329750977418
print "Elastic Constant 5 5 = ${C55all}"
Elastic Constant 5 5 = 50.9678771649569
print "Elastic Constant 6 6 = ${C66all}"
Elastic Constant 6 6 = 42.5611133670619

print "Elastic Constant 1 4 = ${C14all}"
Elastic Constant 1 4 = -2.1378168959461
print "Elastic Constant 1 5 = ${C15all}"
Elastic Constant 1 5 = 2.13549708579785
print "Elastic Constant 1 6 = ${C16all}"
Elastic Constant 1 6 = 1.46223007345765

print "Elastic Constant 2 4 = ${C24all}"
Elastic Constant 2 4 = -0.717483313237075
print "Elastic Constant 2 5 = ${C25all}"
Elastic Constant 2 5 = 0.106769687739775
print "Elastic Constant 2 6 = ${C26all}"
Elastic Constant 2 6 = -4.12148092678908

print "Elastic Constant 3 4 = ${C34all}"
Elastic Constant 3 4 = -0.808402965332399
print "Elastic Constant 3 5 = ${C35all}"
Elastic Constant 3 5 = 3.46849498896284
print "Elastic Constant 3 6 = ${C36all}"
Elastic Constant 3 6 = 0.995434790088775

print "Elastic Constant 4 5 = ${C45all}"
Elastic Constant 4 5 = -2.42262872220005
print "Elastic Constant 4 6 = ${C46all}"
Elastic Constant 4 6 = -1.7857874268072
print "Elastic Constant 5 6 = ${C56all}"
Elastic Constant 5 6 = 0.968253213797975

print "Bulk Modulus = ${bulkmodulus} ${cunits}"
Bulk Modulus = 77.4986195826451 GPa
print "Shear Modulus 1 = ${shearmodulus1} ${cunits}"
Shear Modulus 1 = 46.9206552099202 GPa
print "Shear Modulus 2 = ${shearmodulus2} ${cunits}"
Shear Modulus 2 = 43.4327232337695 GPa
print "Poisson Ratio = ${poissonratio}"
Poisson Ratio = 0.263891495463221

variable rho equal density
print "density (g/cm^3) = ${rho}"
density (g/cm^3) = 1.9504369232761
Total wall time: 0:01:05
