units           real
atom_style      full
boundary        p p p

pair_style      lj/cut 5.000
bond_style      harmonic
angle_style     hybrid fourier cosine/periodic
dihedral_style  harmonic

special_bonds   lj/coul 0.0 0.0 1.0
dielectric      1.0
pair_modify     tail yes mix arithmetic
box tilt        large

The 'box' command has been removed and will be ignored

read_data       ./dat/data.333U-50C-5-vasp
Reading data file ...
  triclinic box = (0 0 0) to (15.678164 13.54433 17.638255) with tilt (-7.040851 -1.014405 0.675028)
WARNING: Triclinic box skew is large. LAMMPS will run inefficiently. (src/domain.cpp:221)
  1 by 1 by 1 MPI processor grid
  reading atoms ...
  350 atoms
  scanning bonds ...
  4 = max bonds/atom
  scanning angles ...
  6 = max angles/atom
  scanning dihedrals ...
  24 = max dihedrals/atom
  triclinic box = (0 0 0) to (15.678164 13.54433 17.638255) with tilt (-7.040851 -1.014405 0.675028)
WARNING: Triclinic box skew is large. LAMMPS will run inefficiently. (src/domain.cpp:221)
  1 by 1 by 1 MPI processor grid
  reading bonds ...
  375 bonds
  reading angles ...
  709 angles
  reading dihedrals ...
  879 dihedrals
Finding 1-2 1-3 1-4 neighbors ...
  special bond factors lj:    0        0        1       
  special bond factors coul:  0        0        1       
     4 = max # of 1-2 neighbors
     8 = max # of 1-3 neighbors
    12 = max # of special neighbors
  special bonds CPU = 0.000 seconds
  read_data CPU = 0.007 seconds

#### Atom Groupings ####
group           fram     id   1:350
350 atoms in group fram
#### END Atom Groupings ####

compute am all property/atom mass
dump        atom_pos all extxyz 100 ./output/333U-50C-5-vasp.lammpstrj
dump_modify atom_pos element Si C H O mass yes
thermo          1000
thermo_style    custom step temp pe ke etotal press vol density

variable up equal 2e-2
variable cfac equal 1.0e-4
variable cunits string GPa

# Define minimization parameters
variable etol equal 0.0
variable ftol equal 1.0e-10
variable maxiter equal 100000
variable maxeval equal 100000
variable dmax equal 1.0e-2

variable temp equal 300.0
variable thermal_damp index 100.0
variable pressure_damp index 500.0

fix relax all box/relax aniso 0.0 vmax 0.001
unfix relax
minimize ${etol} ${ftol} ${maxiter} ${maxeval}
minimize 0 ${ftol} ${maxiter} ${maxeval}
minimize 0 1e-10 ${maxiter} ${maxeval}
minimize 0 1e-10 100000 ${maxeval}
minimize 0 1e-10 100000 100000
Generated 6 of 6 mixed pair_coeff terms from arithmetic mixing rule
Neighbor list info ...
  update: every = 1 steps, delay = 0 steps, check = yes
  max neighbors/atom: 2000, page size: 100000
  master list distance cutoff = 7
  ghost atom cutoff = 7
  binsize = 3.5, bins = 7 5 6
  1 neighbor lists, perpetual/occasional/extra = 1 0 0
  (1) pair lj/cut, perpetual
      attributes: half, newton on
      pair build: half/bin/newton/tri
      stencil: half/bin/3d/tri
      bin: standard
WARNING: Inconsistent image flags
For more information see https://docs.lammps.org/err0027 (src/domain.cpp:1052)
Per MPI rank memory allocation (min/avg/max) = 17.52 | 17.52 | 17.52 Mbytes
   Step          Temp          PotEng         KinEng         TotEng         Press          Volume        Density    
         0   0              1319.1939      0              1319.1939      99835.255      3745.4875      1.7340167    
       112   0              29.053201      0              29.053201      10965.688      3745.4875      1.7340167    
Loop time of 0.0583311 on 1 procs for 112 steps with 350 atoms

100.0% CPU use with 1 MPI tasks x 1 OpenMP threads

Minimization stats:
  Stopping criterion = linesearch alpha is zero
  Energy initial, next-to-last, final = 
       1319.1939140708   29.0532013389916   29.0532013389916
  Force two-norm initial, final = 888.38385 21.595923
  Force max component initial, final = 114.04596 4.9880846
  Final line search alpha, max atom move = 1.4077314e-11 7.0218833e-11
  Iterations, force evaluations = 112 277

MPI task timing breakdown:
Section |  min time  |  avg time  |  max time  |%varavg| %total
---------------------------------------------------------------
Pair    | 0.038594   | 0.038594   | 0.038594   |   0.0 | 66.16
Bond    | 0.0094759  | 0.0094759  | 0.0094759  |   0.0 | 16.25
Neigh   | 0.0072781  | 0.0072781  | 0.0072781  |   0.0 | 12.48
Comm    | 0.0012178  | 0.0012178  | 0.0012178  |   0.0 |  2.09
Output  | 0.00040373 | 0.00040373 | 0.00040373 |   0.0 |  0.69
Modify  | 0          | 0          | 0          |   0.0 |  0.00
Other   |            | 0.001362   |            |       |  2.33

Nlocal:            350 ave         350 max         350 min
Histogram: 1 0 0 0 0 0 0 0 0 0
Nghost:           2220 ave        2220 max        2220 min
Histogram: 1 0 0 0 0 0 0 0 0 0
Neighs:          22122 ave       22122 max       22122 min
Histogram: 1 0 0 0 0 0 0 0 0 0

Total # of neighbors = 22122
Ave neighs/atom = 63.205714
Ave special neighs/atom = 6.1942857
Neighbor list builds = 4
Dangerous builds = 0

# Generating the full routine as described in the paper for UFF
fix nvt_relax   all nvt temp 300 300 ${thermal_damp}
fix nvt_relax   all nvt temp 300 300 100.0
run 100000      # 100 picoseconds
Generated 6 of 6 mixed pair_coeff terms from arithmetic mixing rule
WARNING: Inconsistent image flags
For more information see https://docs.lammps.org/err0027 (src/domain.cpp:1052)
Per MPI rank memory allocation (min/avg/max) = 17.46 | 17.46 | 17.46 Mbytes
   Step          Temp          PotEng         KinEng         TotEng         Press          Volume        Density    
       112   0              29.053201      0              29.053201      10965.688      3745.4875      1.7340167    
      1000   71.431626      98.092619      74.310514      172.40313      12773.024      3745.4875      1.7340167    
      2000   257.35482      332.50781      267.72691      600.23472      22796.848      3745.4875      1.7340167    
      3000   283.91562      357.7237       295.35819      653.08189      13674.455      3745.4875      1.7340167    
      4000   314.78794      331.31554      327.47474      658.79029      13529.459      3745.4875      1.7340167    
      5000   291.82796      329.0772       303.58941      632.66661      19914.019      3745.4875      1.7340167    
      6000   324.21141      326.53424      337.27801      663.81225      22154.163      3745.4875      1.7340167    
      7000   299.63469      319.35568      311.71078      631.06645      18893.594      3745.4875      1.7340167    
      8000   287.60595      362.00315      299.19725      661.2004       20599.349      3745.4875      1.7340167    
      9000   309.04945      333.3039       321.50498      654.80888      20522.329      3745.4875      1.7340167    
     10000   290.86368      341.23472      302.58627      643.82099      20053.708      3745.4875      1.7340167    
     11000   296.57384      317.96372      308.52657      626.49029      15794.964      3745.4875      1.7340167    
     12000   306.53039      313.97115      318.8844       632.85554      20341.634      3745.4875      1.7340167    
     13000   273.93954      325.10428      284.98004      610.08432      21724.304      3745.4875      1.7340167    
     14000   308.35229      333.16794      320.77973      653.94766      20682.738      3745.4875      1.7340167    
     15000   303.42444      310.5934       315.65326      626.24666      15846.577      3745.4875      1.7340167    
     16000   304.19892      343.97438      316.45896      660.43334      17027.821      3745.4875      1.7340167    
     17000   319.96458      321.51248      332.86002      654.3725       14634.145      3745.4875      1.7340167    
     18000   290.22607      373.35228      301.92297      675.27525      21536.452      3745.4875      1.7340167    
     19000   286.72535      347.92841      298.28116      646.20956      19453.587      3745.4875      1.7340167    
     20000   287.42337      346.14675      299.00731      645.15406      18728.528      3745.4875      1.7340167    
     21000   297.83615      356.12212      309.83975      665.96187      14982.323      3745.4875      1.7340167    
     22000   301.34628      324.15743      313.49135      637.64878      16549.444      3745.4875      1.7340167    
     23000   302.78643      334.08575      314.98955      649.0753       13156.401      3745.4875      1.7340167    
     24000   291.11574      350.5418       302.84849      653.39029      18008.289      3745.4875      1.7340167    
     25000   290.49306      363.27238      302.20071      665.47309      20283.197      3745.4875      1.7340167    
     26000   291.09896      361.97969      302.83104      664.81073      15518.764      3745.4875      1.7340167    
     27000   291.95925      330.58708      303.726        634.31308      21877.338      3745.4875      1.7340167    
     28000   284.21361      347.75877      295.66819      643.42696      16666.43       3745.4875      1.7340167    
     29000   294.75991      314.63084      306.63953      621.27037      14158.12       3745.4875      1.7340167    
     30000   302.49815      332.87053      314.68964      647.56017      14268.499      3745.4875      1.7340167    
     31000   303.38959      322.05585      315.61701      637.67286      20952.917      3745.4875      1.7340167    
     32000   308.80676      349.03719      321.25251      670.2897       14929.821      3745.4875      1.7340167    
     33000   275.21194      355.61303      286.30372      641.91676      18573.871      3745.4875      1.7340167    
     34000   298.75517      310.27327      310.79581      621.06907      22735.026      3745.4875      1.7340167    
     35000   311.37131      330.58669      323.92041      654.5071       19187.135      3745.4875      1.7340167    
     36000   300.21554      314.87231      312.31504      627.18735      17728.559      3745.4875      1.7340167    
     37000   316.28809      351.28212      329.03535      680.31747      21869.234      3745.4875      1.7340167    
     38000   287.09553      340.40257      298.66626      639.06882      20063.46       3745.4875      1.7340167    
     39000   311.60604      303.78498      324.16461      627.94959      23181.971      3745.4875      1.7340167    
     40000   293.09723      348.17252      304.90984      653.08236      19317.899      3745.4875      1.7340167    
     41000   287.97038      324.30916      299.57636      623.88552      20574.502      3745.4875      1.7340167    
     42000   327.93989      312.53585      341.15676      653.69261      17907.198      3745.4875      1.7340167    
     43000   317.53731      321.57247      330.33492      651.90739      21831.625      3745.4875      1.7340167    
     44000   295.70793      311.21015      307.62576      618.83592      15711.814      3745.4875      1.7340167    
     45000   317.17438      326.45749      329.95737      656.41486      15020.641      3745.4875      1.7340167    
     46000   300.99039      346.33704      313.12111      659.45815      17287.431      3745.4875      1.7340167    
     47000   290.08263      344.42413      301.77374      646.19787      19914.071      3745.4875      1.7340167    
     48000   310.63019      333.32465      323.14943      656.47408      13613.893      3745.4875      1.7340167    
     49000   288.44955      320.44112      300.07485      620.51597      21681.165      3745.4875      1.7340167    
     50000   300.91273      334.35033      313.04033      647.39066      16068.044      3745.4875      1.7340167    
     51000   287.38889      346.33457      298.97144      645.30601      14905.109      3745.4875      1.7340167    
     52000   306.76855      333.8435       319.13216      652.97566      20470.906      3745.4875      1.7340167    
     53000   315.61669      332.62566      328.3369       660.96256      15035.964      3745.4875      1.7340167    
     54000   305.93792      325.5988       318.26805      643.86685      17070.505      3745.4875      1.7340167    
     55000   298.79566      323.98237      310.83793      634.82031      20601.415      3745.4875      1.7340167    
     56000   305.40877      317.76636      317.71757      635.48394      20764.001      3745.4875      1.7340167    
     57000   288.72995      308.1085       300.36655      608.47504      18902.452      3745.4875      1.7340167    
     58000   331.14668      295.68955      344.49279      640.18234      17271.352      3745.4875      1.7340167    
     59000   285.7253       331.03051      297.2408       628.27131      17056.398      3745.4875      1.7340167    
     60000   309.65154      311.31988      322.13133      633.45121      22652.867      3745.4875      1.7340167    
     61000   318.11113      311.17965      330.93187      642.11152      16443.096      3745.4875      1.7340167    
     62000   288.28369      338.50793      299.9023       638.41023      19947.665      3745.4875      1.7340167    
     63000   277.56454      325.77463      288.75115      614.52577      14382.338      3745.4875      1.7340167    
     64000   292.97363      330.63851      304.78126      635.41977      23245.894      3745.4875      1.7340167    
     65000   316.3225       321.56545      329.07115      650.63661      23367.745      3745.4875      1.7340167    
     66000   309.02098      328.45284      321.47536      649.92819      15143.778      3745.4875      1.7340167    
     67000   309.2228       351.06608      321.68532      672.7514       17247.391      3745.4875      1.7340167    
     68000   294.75777      321.8208       306.6373       628.4581       14507.897      3745.4875      1.7340167    
     69000   315.78842      312.81733      328.51555      641.33289      19310.995      3745.4875      1.7340167    
     70000   324.08075      329.67181      337.14208      666.81389      12949.019      3745.4875      1.7340167    
     71000   301.82578      320.9627       313.99018      634.95288      18394.296      3745.4875      1.7340167    
     72000   319.24693      341.09274      332.11345      673.20619      15722.38       3745.4875      1.7340167    
     73000   301.20664      327.20781      313.34608      640.55389      22578.734      3745.4875      1.7340167    
     74000   299.21473      331.63642      311.27389      642.91031      17550.072      3745.4875      1.7340167    
     75000   313.71802      347.82409      326.36171      674.1858       24174.372      3745.4875      1.7340167    
     76000   305.4655       314.66866      317.77659      632.44525      19328.385      3745.4875      1.7340167    
     77000   318.80221      339.32155      331.6508       670.97235      13273.1        3745.4875      1.7340167    
     78000   304.49022      320.25713      316.762        637.01912      16411.27       3745.4875      1.7340167    
     79000   308.43826      319.12688      320.86916      639.99604      13003.162      3745.4875      1.7340167    
     80000   285.70161      336.50001      297.21616      633.71617      19016.033      3745.4875      1.7340167    
     81000   304.93651      351.48058      317.22628      668.70686      26833.144      3745.4875      1.7340167    
     82000   287.42203      313.27768      299.00592      612.2836       18264.664      3745.4875      1.7340167    
     83000   306.97207      330.69255      319.34387      650.03643      22837.964      3745.4875      1.7340167    
     84000   296.62166      318.16948      308.57632      626.7458       21792.67       3745.4875      1.7340167    
     85000   286.63275      342.99261      298.18482      641.17744      24357.578      3745.4875      1.7340167    
     86000   298.28704      355.00319      310.30882      665.31201      10772.544      3745.4875      1.7340167    
     87000   283.6399       331.81028      295.07136      626.88164      21959.61       3745.4875      1.7340167    
     88000   322.01997      345.90588      334.99824      680.90413      17919.437      3745.4875      1.7340167    
     89000   294.48598      323.60928      306.35456      629.96384      12759.522      3745.4875      1.7340167    
     90000   292.79244      328.35596      304.59276      632.94872      13646.113      3745.4875      1.7340167    
     91000   292.57064      351.64435      304.36203      656.00638      25181.189      3745.4875      1.7340167    
     92000   305.89813      325.7729       318.22665      643.99954      20440.036      3745.4875      1.7340167    
     93000   289.69064      352.52861      301.36596      653.89456      18181.368      3745.4875      1.7340167    
     94000   301.54854      345.23506      313.70176      658.93683      19297.632      3745.4875      1.7340167    
     95000   314.43128      330.28879      327.10371      657.3925       20276.988      3745.4875      1.7340167    
     96000   279.68413      319.67286      290.95615      610.62901      22769.176      3745.4875      1.7340167    
     97000   317.55251      335.38321      330.35074      665.73395      19025.79       3745.4875      1.7340167    
     98000   300.85842      325.26994      312.98382      638.25376      14526.739      3745.4875      1.7340167    
     99000   291.11872      303.434        302.85159      606.28559      17050.669      3745.4875      1.7340167    
    100000   288.23365      315.57475      299.85025      615.425        13830.358      3745.4875      1.7340167    
    100112   325.02677      320.78619      338.12623      658.91242      24541.748      3745.4875      1.7340167    
Loop time of 20.7244 on 1 procs for 100000 steps with 350 atoms

Performance: 416.900 ns/day, 0.058 hours/ns, 4825.230 timesteps/s, 1.689 Matom-step/s
99.7% CPU use with 1 MPI tasks x 1 OpenMP threads

MPI task timing breakdown:
Section |  min time  |  avg time  |  max time  |%varavg| %total
---------------------------------------------------------------
Pair    | 12.649     | 12.649     | 12.649     |   0.0 | 61.03
Bond    | 3.2439     | 3.2439     | 3.2439     |   0.0 | 15.65
Neigh   | 3.4227     | 3.4227     | 3.4227     |   0.0 | 16.52
Comm    | 0.4921     | 0.4921     | 0.4921     |   0.0 |  2.37
Output  | 0.48286    | 0.48286    | 0.48286    |   0.0 |  2.33
Modify  | 0.31536    | 0.31536    | 0.31536    |   0.0 |  1.52
Other   |            | 0.1185     |            |       |  0.57

Nlocal:            350 ave         350 max         350 min
Histogram: 1 0 0 0 0 0 0 0 0 0
Nghost:           2212 ave        2212 max        2212 min
Histogram: 1 0 0 0 0 0 0 0 0 0
Neighs:          22193 ave       22193 max       22193 min
Histogram: 1 0 0 0 0 0 0 0 0 0

Total # of neighbors = 22193
Ave neighs/atom = 63.408571
Ave special neighs/atom = 6.1942857
Neighbor list builds = 1699
Dangerous builds = 0
unfix           nvt_relax

fix npt_relax   all npt temp 300 300 ${thermal_damp} iso 0 0 ${pressure_damp}
fix npt_relax   all npt temp 300 300 100.0 iso 0 0 ${pressure_damp}
fix npt_relax   all npt temp 300 300 100.0 iso 0 0 500.0
run 100000      # 100 picoseconds
Generated 6 of 6 mixed pair_coeff terms from arithmetic mixing rule
WARNING: Inconsistent image flags
For more information see https://docs.lammps.org/err0027 (src/domain.cpp:1052)
Per MPI rank memory allocation (min/avg/max) = 17.47 | 17.47 | 17.47 Mbytes
   Step          Temp          PotEng         KinEng         TotEng         Press          Volume        Density    
    100112   325.02677      320.78619      338.12623      658.91242      24541.748      3745.4875      1.7340167    
    101000   298.89773      287.88972      310.94412      598.83384      3520.578       3886.6212      1.6710499    
    102000   301.12993      316.99236      313.26628      630.25864      828.16618      3895.5401      1.667224     
    103000   280.69826      316.31532      292.01116      608.32648      2487.7743      3879.2595      1.6742211    
    104000   317.19241      323.86765      329.97612      653.84377      4163.149       3917.8924      1.6577122    
    105000   289.27901      326.70079      300.93774      627.63852      2630.4014      3933.4235      1.6511667    
    106000   306.49452      311.46127      318.84708      630.30835      8576.1719      3911.5577      1.6603968    
    107000   312.7708       316.76062      325.37631      642.13693      591.21568      3925.1551      1.6546449    
    108000   311.68006      305.26278      324.24161      629.50439     -738.78515      3926.2269      1.6541932    
    109000   279.74938      309.19095      291.02403      600.21499     -3271.0241      3940.5352      1.6481868    
    110000   319.036        324.11048      331.89402      656.00449      1454.7846      3971.4628      1.6353516    
    111000   295.40199      314.74689      307.30749      622.05437      2434.6627      3894.4491      1.6676911    
    112000   305.05843      330.59536      317.35311      647.94847      3328.3827      3945.9091      1.6459421    
    113000   292.41717      308.26333      304.20237      612.4657       3096.6538      3954.7374      1.6422678    
    114000   273.7601       352.10385      284.79337      636.89722      6442.6032      3932.0185      1.6517567    
    115000   317.74693      293.50191      330.55299      624.0549      -97.745988      3970.8827      1.6355905    
    116000   315.17838      341.8413       327.88092      669.72222      75.096278      3955.609       1.6419059    
    117000   302.30801      313.36326      314.49185      627.85511     -1161.6078      3981.4766      1.6312385    
    118000   320.69297      322.81521      333.61776      656.43297      4715.0087      3948.6342      1.6448062    
    119000   296.50397      305.90021      308.45388      614.35409      1325.8124      3911.7591      1.6603113    
    120000   344.4967       318.76888      358.38085      677.14973      1075.8394      3920.9456      1.6564213    
    121000   303.34571      312.55225      315.57136      628.12361     -5725.4078      3983.0377      1.6305991    
    122000   296.94555      334.85591      308.91326      643.76917      6426.8998      3948.7221      1.6447696    
    123000   288.5116       328.43273      300.1394       628.57212      939.70626      3922.8651      1.6556108    
    124000   294.30985      319.31535      306.17134      625.48668     -148.91688      3972.2441      1.6350299    
    125000   275.00499      319.85696      286.08844      605.9454      -497.26468      3918.5895      1.6574173    
    126000   292.56484      324.24568      304.356        628.60168     -334.48627      3957.8253      1.6409865    
    127000   305.52308      335.64506      317.83649      653.48155     -981.0089       3917.1909      1.6580091    
    128000   288.86912      316.59337      300.51132      617.1047      -2854.1569      3947.8339      1.6451396    
    129000   302.09397      326.50054      314.26918      640.76971     -300.82116      3949.3047      1.6445269    
    130000   311.83176      332.35394      324.39942      656.75336     -351.22756      3982.8687      1.6306684    
    131000   287.88366      322.01921      299.48615      621.50536      9223.8441      3928.6191      1.653186     
    132000   298.46854      329.87757      310.49763      640.3752      -33.993186      3968.689       1.6364945    
    133000   332.28215      332.16106      345.67402      677.83508     -5554.3121      3959.5972      1.6402522    
    134000   287.39139      314.31427      298.97404      613.2883      -2053.3492      3945.7992      1.6459879    
    135000   291.19297      336.53968      302.92883      639.46851     -6169.8303      3970.2647      1.6358451    
    136000   278.95087      303.04034      290.19334      593.23369     -2480.3589      3940.2196      1.6483188    
    137000   304.66811      319.50797      316.94706      636.45503     -1647.7344      3948.0464      1.6450511    
    138000   312.4916       307.76239      325.08585      632.84824      268.37494      3949.9154      1.6442727    
    139000   298.77223      326.47791      310.81356      637.29147      5254.0996      3952.8424      1.6430551    
    140000   288.86874      309.32778      300.51093      609.83871     -6589.0313      3957.9211      1.6409468    
    141000   298.3351       342.54204      310.35881      652.90086     -3630.6904      3958.6842      1.6406305    
    142000   292.1941       324.67555      303.97031      628.64586      3178.6345      3945.6674      1.6460429    
    143000   291.48885      332.88498      303.23664      636.12162      2721.2481      3944.2291      1.6466432    
    144000   284.61547      303.12222      296.08624      599.20846      3628.1188      3947.7677      1.6451672    
    145000   286.83372      329.81384      298.3939       628.20773     -597.34156      3940.7452      1.6480989    
    146000   290.46893      302.74669      302.17561      604.9223      -91.684813      3947.8815      1.6451198    
    147000   295.93686      302.42252      307.86391      610.28644     -1136.7688      3961.7633      1.6393554    
    148000   304.84865      305.254        317.13488      622.38888     -3993.0022      3987.0131      1.6289733    
    149000   287.07533      320.47895      298.64524      619.12419      5314.1725      3932.7313      1.6514573    
    150000   304.65545      322.69825      316.93389      639.63214      2589.829       4001.2476      1.6231782    
    151000   269.26213      323.69679      280.11413      603.81091      843.73034      3998.7496      1.6241922    
    152000   295.72739      336.92358      307.646        644.56958     -722.48147      3977.0728      1.6330448    
    153000   300.68094      308.88573      312.7992       621.68493     -3028.5742      3969.9762      1.635964     
    154000   312.40363      326.06378      324.99434      651.05812     -798.1378       3955.4034      1.6419913    
    155000   291.09841      319.13425      302.83046      621.96471     -1655.3482      3962.3277      1.6391219    
    156000   284.4171       309.56729      295.87988      605.44716     -3689.193       3950.8751      1.6438733    
    157000   313.50603      328.92793      326.14117      655.0691      -308.61211      3978.596       1.6324196    
    158000   290.17991      317.5838       301.87495      619.45875      3791.2375      3940.1189      1.6483609    
    159000   275.98005      317.51794      287.10279      604.62073     -6432.008       3998.6313      1.6242402    
    160000   319.80798      330.45278      332.69711      663.14989      1622.2606      3935.943       1.6501098    
    161000   279.21875      327.09584      290.47202      617.56786     -3473.6757      3963.9954      1.6384323    
    162000   298.76226      316.8555       310.80318      627.65868     -2395.7584      3990.7226      1.6274591    
    163000   320.99663      322.56403      333.93366      656.49769     -1056.8434      3971.9295      1.6351594    
    164000   292.96409      303.59602      304.77133      608.36735      1451.2603      3962.3701      1.6391043    
    165000   303.23925      315.91012      315.46061      631.37073     -6556.9072      3983.5873      1.6303742    
    166000   290.70542      314.78832      302.42164      617.20995      53.548943      3942.4979      1.6473662    
    167000   297.3534       302.02567      309.33755      611.36322     -559.7499       4008.0187      1.620436     
    168000   283.55654      328.58962      294.98463      623.57426     -8223.1386      4002.1502      1.6228121    
    169000   302.81053      294.72056      315.01461      609.73517     -4844.8451      3955.3144      1.6420282    
    170000   297.02477      310.43156      308.99567      619.42724      703.38035      3985.0342      1.6297822    
    171000   289.80129      307.94278      301.48107      609.42385     -6307.9324      3981.8879      1.63107      
    172000   296.49511      340.9251       308.44467      649.36977     -6558.1711      3969.1393      1.6363089    
    173000   291.68609      311.5732       303.44183      615.01503     -6357.4123      3998.8467      1.6241528    
    174000   317.08568      288.6112       329.86509      618.47629      537.71196      3965.2609      1.6379094    
    175000   315.44339      322.51705      328.15661      650.67366     -230.29279      3914.3349      1.6592188    
    176000   289.30029      301.20696      300.95988      602.16684     -2391.4785      3982.9428      1.630638     
    177000   313.27787      303.60793      325.90381      629.51175      288.96238      3943.9058      1.6467782    
    178000   292.02994      306.31646      303.79953      610.11599     -3567.6484      3961.8564      1.6393168    
    179000   303.49401      310.10242      315.72564      625.82806      4716.8027      3945.5088      1.6461091    
    180000   294.7295       296.99346      306.6079       603.60136     -1048.95        3947.8163      1.6451469    
    181000   292.83439      320.9737       304.6364       625.6101       518.82921      3959.0169      1.6404926    
    182000   285.38403      305.40106      296.88578      602.28684     -9044.0605      3981.3261      1.6313002    
    183000   288.61378      312.65652      300.24569      612.90221     -3094.9131      3938.7367      1.6489393    
    184000   282.01283      328.82627      293.37871      622.20498      2245.7468      3970.7847      1.6356309    
    185000   309.35422      301.10044      321.82203      622.92247     -3084.0853      3995.7228      1.6254226    
    186000   304.17685      308.50352      316.436        624.93952     -3999.6251      3976.6722      1.6332093    
    187000   296.76045      315.47602      308.7207       624.19673     -2368.9366      3981.6003      1.6311878    
    188000   279.42672      324.735        290.68837      615.42337      397.08465      3934.0985      1.6508834    
    189000   293.50178      349.12941      305.3307       654.4601      -942.25854      3962.5524      1.6390289    
    190000   301.63966      288.91818      313.79656      602.71474     -7956.5273      3953.497       1.6427831    
    191000   306.20826      318.4577       318.54928      637.00698     -249.86731      3993.0967      1.6264915    
    192000   319.35027      323.43605      332.22095      655.657       -6380.9374      4008.4493      1.620262     
    193000   283.09994      324.95808      294.50964      619.46772      6361.1222      3917.9855      1.6576728    
    194000   320.54453      303.92432      333.46334      637.38767     -5916.4198      3984.2469      1.6301043    
    195000   298.9472       298.6244       310.99558      609.61998     -8538.172       4000.404       1.6235205    
    196000   289.84411      298.16291      301.52562      599.68853     -6653.0216      4002.1348      1.6228184    
    197000   308.09214      327.95378      320.50908      648.46287      99.464431      3933.195       1.6512626    
    198000   291.8067       320.43478      303.5673       624.00208      1231.8942      3940.1465      1.6483493    
    199000   281.0658       343.99487      292.39351      636.38839     -5749.6356      3978.3137      1.6325354    
    200000   291.58025      296.72         303.33173      600.05172     -285.16092      3954.0374      1.6425585    
    200112   298.6215       303.3775       310.65676      614.03426      6341.5704      3920.8219      1.6564736    
Loop time of 25.1884 on 1 procs for 100000 steps with 350 atoms

Performance: 343.015 ns/day, 0.070 hours/ns, 3970.076 timesteps/s, 1.390 Matom-step/s
99.7% CPU use with 1 MPI tasks x 1 OpenMP threads

MPI task timing breakdown:
Section |  min time  |  avg time  |  max time  |%varavg| %total
---------------------------------------------------------------
Pair    | 13.837     | 13.837     | 13.837     |   0.0 | 54.93
Bond    | 4.7898     | 4.7898     | 4.7898     |   0.0 | 19.02
Neigh   | 4.5395     | 4.5395     | 4.5395     |   0.0 | 18.02
Comm    | 0.53944    | 0.53944    | 0.53944    |   0.0 |  2.14
Output  | 0.54613    | 0.54613    | 0.54613    |   0.0 |  2.17
Modify  | 0.79439    | 0.79439    | 0.79439    |   0.0 |  3.15
Other   |            | 0.1424     |            |       |  0.57

Nlocal:            350 ave         350 max         350 min
Histogram: 1 0 0 0 0 0 0 0 0 0
Nghost:           2150 ave        2150 max        2150 min
Histogram: 1 0 0 0 0 0 0 0 0 0
Neighs:          20963 ave       20963 max       20963 min
Histogram: 1 0 0 0 0 0 0 0 0 0

Total # of neighbors = 20963
Ave neighs/atom = 59.894286
Ave special neighs/atom = 6.1942857
Neighbor list builds = 2070
Dangerous builds = 0
unfix           npt_relax

# fix nvt_heat    all nvt temp 300 1000 ${thermal_damp}
# run 100000      # 100 picoseconds
# unfix           nvt_heat
#
# fix npt_heat    all npt temp 1000 1000 ${thermal_damp} iso 0 0 ${pressure_damp}
# run 100000      # 100 picoseconds
# unfix           npt_heat
#
# fix cooling_npt all npt temp 1000 300 ${thermal_damp} iso 0 0 ${pressure_damp}
# run 700000      # 700 picoseconds
# unfix           cooling_npt
#
# fix npt_final   all npt temp 300 300 ${thermal_damp} iso 0 0 100
# run 100000      # 100 picoseconds
# unfix           npt_final

# density computation
variable rho equal density
fix integrate  all npt temp ${temp} ${temp} ${thermal_damp} iso 0 0 ${pressure_damp}
fix integrate  all npt temp 300 ${temp} ${thermal_damp} iso 0 0 ${pressure_damp}
fix integrate  all npt temp 300 300 ${thermal_damp} iso 0 0 ${pressure_damp}
fix integrate  all npt temp 300 300 100.0 iso 0 0 ${pressure_damp}
fix integrate  all npt temp 300 300 100.0 iso 0 0 500.0
fix rho50k all ave/time 10 5000 50000 v_rho mode scalar ave one
run 50000
Generated 6 of 6 mixed pair_coeff terms from arithmetic mixing rule
WARNING: Inconsistent image flags
For more information see https://docs.lammps.org/err0027 (src/domain.cpp:1052)
Per MPI rank memory allocation (min/avg/max) = 17.47 | 17.47 | 17.47 Mbytes
   Step          Temp          PotEng         KinEng         TotEng         Press          Volume        Density    
    200112   298.6215       303.3775       310.65676      614.03426      6341.5704      3920.8219      1.6564736    
    201000   323.90021      323.62269      336.95427      660.57696     -1391.8132      3980.3609      1.6316957    
    202000   294.94871      312.38912      306.83594      619.22506      4426.7688      3954.4348      1.6423935    
    203000   292.32912      285.95468      304.11078      590.06546     -3915.2706      3940.4627      1.6482171    
    204000   329.10248      300.46915      342.36621      642.83536     -2267.7698      3936.6484      1.6498141    
    205000   298.63079      316.8785       310.66642      627.54493      2783.67        3936.4285      1.6499062    
    206000   300.60052      317.86637      312.71553      630.5819       1063.309       3961.0577      1.6396474    
    207000   289.93518      318.00353      301.62035      619.62388      1888.9428      3938.1396      1.6491894    
    208000   302.4397       322.35257      314.62884      636.98141      1604.767       3975.9938      1.633488     
    209000   286.0595       310.36972      297.58847      607.95819     -843.85303      3968.3622      1.6366293    
    210000   310.5313       302.77881      323.04655      625.82536     -3002.3447      4008.4892      1.6202458    
    211000   291.88605      332.13369      303.64985      635.78354     -449.78615      3982.8679      1.6306687    
    212000   296.17475      308.84586      308.11139      616.95726      3984.6381      3934.3973      1.650758     
    213000   293.03075      305.78376      304.84068      610.62444      1582.2421      3926.4936      1.6540808    
    214000   298.84546      324.76617      310.88974      635.65591     -6881.3388      3986.893       1.6290224    
    215000   301.99729      322.75234      314.16859      636.92094     -4086.1567      3956.1088      1.6416985    
    216000   284.41452      327.99212      295.87719      623.86932      1434.4148      3972.4932      1.6349274    
    217000   281.99412      316.25387      293.35925      609.61312      1252.7395      3930.5503      1.6523737    
    218000   314.93327      303.86569      327.62593      631.49162      3579.6904      3951.5552      1.6435903    
    219000   293.50145      315.85558      305.33035      621.18593      5326.9569      3961.9095      1.6392949    
    220000   309.03112      333.15253      321.48591      654.63844     -776.4397       3987.2282      1.6288854    
    221000   291.8376       306.34353      303.59945      609.94297     -2561.4639      3955.0683      1.6421304    
    222000   314.77608      323.62879      327.4624       651.09119      2408.4075      3974.4874      1.6341071    
    223000   289.69861      301.80468      301.37425      603.17893     -2600.9515      3961.8925      1.6393019    
    224000   306.51264      307.40225      318.86593      626.26818      4404.7149      3951.3875      1.6436601    
    225000   290.53336      297.43984      302.24265      599.68249     -1067.2544      3965.8886      1.6376501    
    226000   300.3251       333.78549      312.42901      646.2145      -1840.2055      3985.5956      1.6295527    
    227000   303.88237      317.85118      316.12965      633.98083      2625.0891      3967.3965      1.6370277    
    228000   313.1804       308.79579      325.80241      634.5982      -2232.3563      3974.0568      1.6342841    
    229000   315.35122      314.84436      328.06073      642.90509     -4081.5465      3963.325       1.6387094    
    230000   300.57431      302.88636      312.68827      615.57463      3513.5883      3943.2622      1.647047     
    231000   318.57715      293.96828      331.41667      625.38495      4876.2187      3922.4133      1.6558015    
    232000   308.33214      304.79894      320.75876      625.5577      -1315.6717      3941.857       1.6476341    
    233000   285.17804      337.41454      296.67149      634.08603      156.11448      3977.0489      1.6330546    
    234000   304.25837      322.77748      316.52081      639.29829      6144.8301      3928.464       1.6532512    
    235000   295.39182      298.91145      307.29692      606.20836      1953.6043      3949.1099      1.6446081    
    236000   316.30183      316.84458      329.04965      645.89424     -2437.2         3945.0164      1.6463146    
    237000   282.07446      300.83342      293.44283      594.27625      3161.1011      3970.3653      1.6358036    
    238000   292.76285      322.6434       304.56198      627.20538     -8259.7107      3985.9754      1.6293974    
    239000   317.0638       333.88693      329.84233      663.72926      2680.8381      3966.8665      1.6372464    
    240000   315.77298      299.18569      328.49949      627.68518      4715.1626      3975.1788      1.6338229    
    241000   295.6925       311.63021      307.60971      619.23992     -2694.6914      3986.7098      1.6290972    
    242000   315.43825      322.83363      328.15127      650.9849       384.25036      3984.0804      1.6301724    
    243000   293.60618      313.63462      305.4393       619.07392      9466.4747      3938.1822      1.6491715    
    244000   297.72495      310.14919      309.72407      619.87325     -273.6079       3944.8207      1.6463962    
    245000   295.99309      296.74532      307.92241      604.66773      3290.474       3957.2494      1.6412253    
    246000   297.35806      312.98327      309.34239      622.32566     -1177.0026      3964.5067      1.6382209    
    247000   303.19084      308.83304      315.41025      624.24329     -2841.781       3987.0262      1.628968     
    248000   298.36037      315.22018      310.3851       625.60528      798.78607      3939.1776      1.6487548    
    249000   318.37078      305.11345      331.20198      636.31543     -6206.3309      3950.9265      1.6438519    
    250000   289.69303      335.4449       301.36844      636.81335     -8382.2429      3991.3029      1.6272225    
    250112   274.88308      312.30109      285.96161      598.2627      -2693.7314      3993.4176      1.6263608    
Loop time of 12.2407 on 1 procs for 50000 steps with 350 atoms

Performance: 352.921 ns/day, 0.068 hours/ns, 4084.730 timesteps/s, 1.430 Matom-step/s
99.7% CPU use with 1 MPI tasks x 1 OpenMP threads

MPI task timing breakdown:
Section |  min time  |  avg time  |  max time  |%varavg| %total
---------------------------------------------------------------
Pair    | 6.6819     | 6.6819     | 6.6819     |   0.0 | 54.59
Bond    | 2.3098     | 2.3098     | 2.3098     |   0.0 | 18.87
Neigh   | 2.2718     | 2.2718     | 2.2718     |   0.0 | 18.56
Comm    | 0.26065    | 0.26065    | 0.26065    |   0.0 |  2.13
Output  | 0.2614     | 0.2614     | 0.2614     |   0.0 |  2.14
Modify  | 0.38604    | 0.38604    | 0.38604    |   0.0 |  3.15
Other   |            | 0.06915    |            |       |  0.56

Nlocal:            350 ave         350 max         350 min
Histogram: 1 0 0 0 0 0 0 0 0 0
Nghost:           2150 ave        2150 max        2150 min
Histogram: 1 0 0 0 0 0 0 0 0 0
Neighs:          20786 ave       20786 max       20786 min
Histogram: 1 0 0 0 0 0 0 0 0 0

Total # of neighbors = 20786
Ave neighs/atom = 59.388571
Ave special neighs/atom = 6.1942857
Neighbor list builds = 1072
Dangerous builds = 0
unfix integrate
unfix rho50k

# Compute initial state
fix 3 all box/relax  aniso 0.0
minimize ${etol} ${ftol} ${maxiter} ${maxeval}
minimize 0 ${ftol} ${maxiter} ${maxeval}
minimize 0 1e-10 ${maxiter} ${maxeval}
minimize 0 1e-10 100000 ${maxeval}
minimize 0 1e-10 100000 100000
Generated 6 of 6 mixed pair_coeff terms from arithmetic mixing rule
WARNING: Energy due to 3 extra global DOFs will be included in minimizer energies
 (src/min.cpp:222)
WARNING: Inconsistent image flags
For more information see https://docs.lammps.org/err0027 (src/domain.cpp:1052)
Per MPI rank memory allocation (min/avg/max) = 18.58 | 18.58 | 18.58 Mbytes
   Step          Temp          PotEng         KinEng         TotEng         Press          Volume        Density    
    250112   274.88308      312.30109      285.96161      598.2627      -2693.7314      3993.4176      1.6263608    
    250430   274.88308      100.06422      285.96161      386.02583      3002.5693      3974.9928      1.6338993    
Loop time of 0.0895675 on 1 procs for 318 steps with 350 atoms

99.0% CPU use with 1 MPI tasks x 1 OpenMP threads

Minimization stats:
  Stopping criterion = linesearch alpha is zero
  Energy initial, next-to-last, final = 
      312.301087109973   100.064216996886   100.064216996886
  Force two-norm initial, final = 868.18473 128.81275
  Force max component initial, final = 374.2862 17.409324
  Final line search alpha, max atom move = 6.9456233e-13 1.2091861e-11
  Iterations, force evaluations = 318 341

MPI task timing breakdown:
Section |  min time  |  avg time  |  max time  |%varavg| %total
---------------------------------------------------------------
Pair    | 0.057935   | 0.057935   | 0.057935   |   0.0 | 64.68
Bond    | 0.018198   | 0.018198   | 0.018198   |   0.0 | 20.32
Neigh   | 0          | 0          | 0          |   0.0 |  0.00
Comm    | 0.0017252  | 0.0017252  | 0.0017252  |   0.0 |  1.93
Output  | 0.0016921  | 0.0016921  | 0.0016921  |   0.0 |  1.89
Modify  | 0          | 0          | 0          |   0.0 |  0.00
Other   |            | 0.01002    |            |       | 11.18

Nlocal:            350 ave         350 max         350 min
Histogram: 1 0 0 0 0 0 0 0 0 0
Nghost:           2128 ave        2128 max        2128 min
Histogram: 1 0 0 0 0 0 0 0 0 0
Neighs:          20748 ave       20748 max       20748 min
Histogram: 1 0 0 0 0 0 0 0 0 0

Total # of neighbors = 20748
Ave neighs/atom = 59.28
Ave special neighs/atom = 6.1942857
Neighbor list builds = 0
Dangerous builds = 0

variable tmp equal pxx
variable pxx0 equal ${tmp}
variable pxx0 equal 3204.23357852857
variable tmp equal pyy
variable pyy0 equal ${tmp}
variable pyy0 equal 3034.58598933429
variable tmp equal pzz
variable pzz0 equal ${tmp}
variable pzz0 equal 2768.88833389004
variable tmp equal pyz
variable pyz0 equal ${tmp}
variable pyz0 equal -138.602611814759
variable tmp equal pxz
variable pxz0 equal ${tmp}
variable pxz0 equal -5196.81583687505
variable tmp equal pxy
variable pxy0 equal ${tmp}
variable pxy0 equal 3282.45582343635

variable tmp equal lx
variable lx0 equal ${tmp}
variable lx0 equal 15.9629790609699
variable tmp equal ly
variable ly0 equal ${tmp}
variable ly0 equal 13.8226716444906
variable tmp equal lz
variable lz0 equal ${tmp}
variable lz0 equal 18.0148399249157

# These formulas define the derivatives w.r.t. strain components
# Constants uses $, variables use v_
variable d1 equal -(v_pxx1-${pxx0})/(v_delta/v_len0)*${cfac}
variable d1 equal -(v_pxx1-3204.23357852857)/(v_delta/v_len0)*${cfac}
variable d1 equal -(v_pxx1-3204.23357852857)/(v_delta/v_len0)*0.0001
variable d2 equal -(v_pyy1-${pyy0})/(v_delta/v_len0)*${cfac}
variable d2 equal -(v_pyy1-3034.58598933429)/(v_delta/v_len0)*${cfac}
variable d2 equal -(v_pyy1-3034.58598933429)/(v_delta/v_len0)*0.0001
variable d3 equal -(v_pzz1-${pzz0})/(v_delta/v_len0)*${cfac}
variable d3 equal -(v_pzz1-2768.88833389004)/(v_delta/v_len0)*${cfac}
variable d3 equal -(v_pzz1-2768.88833389004)/(v_delta/v_len0)*0.0001
variable d4 equal -(v_pyz1-${pyz0})/(v_delta/v_len0)*${cfac}
variable d4 equal -(v_pyz1--138.602611814759)/(v_delta/v_len0)*${cfac}
variable d4 equal -(v_pyz1--138.602611814759)/(v_delta/v_len0)*0.0001
variable d5 equal -(v_pxz1-${pxz0})/(v_delta/v_len0)*${cfac}
variable d5 equal -(v_pxz1--5196.81583687505)/(v_delta/v_len0)*${cfac}
variable d5 equal -(v_pxz1--5196.81583687505)/(v_delta/v_len0)*0.0001
variable d6 equal -(v_pxy1-${pxy0})/(v_delta/v_len0)*${cfac}
variable d6 equal -(v_pxy1-3282.45582343635)/(v_delta/v_len0)*${cfac}
variable d6 equal -(v_pxy1-3282.45582343635)/(v_delta/v_len0)*0.0001

# displace_atoms all random ${atomjiggle} ${atomjiggle} ${atomjiggle} 87287 units box

# Write restart
unfix 3
write_restart restart_333U-50C-5-vasp.equil
System init for write_restart ...
Generated 6 of 6 mixed pair_coeff terms from arithmetic mixing rule

# uxx Perturbation

variable dir equal 1
include ./input/displace_333U-50C-5-vasp.mod
if "${dir} == 1" then    "variable len0 equal ${lx0}"
variable len0 equal ${lx0}
variable len0 equal 15.9629790609699
if "${dir} == 2" then    "variable len0 equal ${ly0}"
if "${dir} == 3" then    "variable len0 equal ${lz0}"
if "${dir} == 4" then    "variable len0 equal ${lz0}"
if "${dir} == 5" then    "variable len0 equal ${lz0}"
if "${dir} == 6" then    "variable len0 equal ${ly0}"

# Reset box and simulation parameters

clear
OMP_NUM_THREADS environment is not set. Defaulting to 1 thread.
  using 1 OpenMP thread(s) per MPI task
box tilt large

The 'box' command has been removed and will be ignored

read_restart restart_333U-50C-5-vasp.equil
Reading restart file ...
  restart file = 10 Sep 2025, LAMMPS = 10 Sep 2025
  restoring atom style full from restart
  triclinic box = (-0.14240753 -0.13917082 -0.18829246) to (15.820572 13.683501 17.826547) with tilt (-7.1855434 -1.036063 0.68944016)
WARNING: Triclinic box skew is large. LAMMPS will run inefficiently. (src/domain.cpp:221)
  1 by 1 by 1 MPI processor grid
  restoring pair style lj/cut from restart
  restoring bond style harmonic from restart
  restoring angle style hybrid from restart
  restoring dihedral style harmonic from restart
  350 atoms
  375 bonds
  709 angles
  879 dihedrals
Finding 1-2 1-3 1-4 neighbors ...
  special bond factors lj:    0        0        1       
  special bond factors coul:  0        0        1       
     4 = max # of 1-2 neighbors
     8 = max # of 1-3 neighbors
    12 = max # of special neighbors
  special bonds CPU = 0.000 seconds
  read_restart CPU = 0.002 seconds
include ./input/angles_333U-50C-5-vasp.mod
angle_style hybrid fourier cosine/periodic
angle_coeff 1 fourier 157.882480        0.343737        0.374972        0.281246
angle_coeff 2 fourier 221.735285        0.343737        0.374972        0.281246
angle_coeff 3 fourier 32.417871        0.343737        0.374972        0.281246
angle_coeff 4 fourier 83.380072        0.343737        0.374972        0.281246
angle_coeff 5 fourier 114.246973        0.343737        0.374972        0.281246
angle_coeff 6 fourier 58.020602        0.343737        0.374972        0.281246
angle_coeff 7 fourier 90.420412        0.343737        0.374972        0.281246
angle_coeff 8 fourier 75.498766        0.343737        0.374972        0.281246
angle_coeff 9 cosine/periodic 88.853997              -1               3

# Negative deformation

variable delta equal -${up}*${len0}
variable delta equal -0.02*${len0}
variable delta equal -0.02*15.9629790609699
variable deltaxy equal -${up}*xy
variable deltaxy equal -0.02*xy
variable deltaxz equal -${up}*xz
variable deltaxz equal -0.02*xz
variable deltayz equal -${up}*yz
variable deltayz equal -0.02*yz
if "${dir} == 1" then    "change_box all x delta 0 ${delta} xy delta ${deltaxy} xz delta ${deltaxz} remap units box"
change_box all x delta 0 ${delta} xy delta ${deltaxy} xz delta ${deltaxz} remap units box
change_box all x delta 0 -0.319259581219398 xy delta ${deltaxy} xz delta ${deltaxz} remap units box
change_box all x delta 0 -0.319259581219398 xy delta 0.143710868637689 xz delta ${deltaxz} remap units box
change_box all x delta 0 -0.319259581219398 xy delta 0.143710868637689 xz delta 0.0207212603446704 remap units box
Changing box ...
WARNING: Triclinic box skew is large. LAMMPS will run inefficiently. (src/domain.cpp:221)
  triclinic box = (-0.14240753 -0.13917082 -0.18829246) to (15.501312 13.683501 17.826547) with tilt (-7.1855434 -1.036063 0.68944016)
WARNING: Triclinic box skew is large. LAMMPS will run inefficiently. (src/domain.cpp:221)
  triclinic box = (-0.14240753 -0.13917082 -0.18829246) to (15.501312 13.683501 17.826547) with tilt (-7.0418326 -1.036063 0.68944016)
WARNING: Triclinic box skew is large. LAMMPS will run inefficiently. (src/domain.cpp:221)
  triclinic box = (-0.14240753 -0.13917082 -0.18829246) to (15.501312 13.683501 17.826547) with tilt (-7.0418326 -1.0153418 0.68944016)
if "${dir} == 2" then    "change_box all y delta 0 ${delta} yz delta ${deltayz} remap units box"
if "${dir} == 3" then    "change_box all z delta 0 ${delta} remap units box"
if "${dir} == 4" then    "change_box all yz delta ${delta} remap units box"
if "${dir} == 5" then    "change_box all xz delta ${delta} remap units box"
if "${dir} == 6" then    "change_box all xy delta ${delta} remap units box"

# Relax atoms positions

minimize ${etol} ${ftol} ${maxiter} ${maxeval}
minimize 0 ${ftol} ${maxiter} ${maxeval}
minimize 0 1e-10 ${maxiter} ${maxeval}
minimize 0 1e-10 100000 ${maxeval}
minimize 0 1e-10 100000 100000
Generated 6 of 6 mixed pair_coeff terms from arithmetic mixing rule
Neighbor list info ...
  update: every = 1 steps, delay = 0 steps, check = yes
  max neighbors/atom: 2000, page size: 100000
  master list distance cutoff = 7
  ghost atom cutoff = 7
  binsize = 3.5, bins = 7 5 6
  1 neighbor lists, perpetual/occasional/extra = 1 0 0
  (1) pair lj/cut, perpetual
      attributes: half, newton on
      pair build: half/bin/newton/tri
      stencil: half/bin/3d/tri
      bin: standard
WARNING: Inconsistent image flags
For more information see https://docs.lammps.org/err0027 (src/domain.cpp:1052)
Per MPI rank memory allocation (min/avg/max) = 17.5 | 17.5 | 17.5 Mbytes
   Step          Temp          E_pair         E_mol          TotEng         Press     
    250430   274.88308     -412.60218      542.03892      415.39835      27710.776    
    250468   274.88308     -435.97038      433.67169      283.66292      5196.9865    
Loop time of 0.0328628 on 1 procs for 38 steps with 350 atoms

100.0% CPU use with 1 MPI tasks x 1 OpenMP threads

Minimization stats:
  Stopping criterion = linesearch alpha is zero
  Energy initial, next-to-last, final = 
       129.43673447477  -2.29869392314959  -2.29869392314959
  Force two-norm initial, final = 216.55846 14.48646
  Force max component initial, final = 22.909713 1.69945
  Final line search alpha, max atom move = 3.1199029e-11 5.3021191e-11
  Iterations, force evaluations = 38 144

MPI task timing breakdown:
Section |  min time  |  avg time  |  max time  |%varavg| %total
---------------------------------------------------------------
Pair    | 0.024841   | 0.024841   | 0.024841   |   0.0 | 75.59
Bond    | 0.0065766  | 0.0065766  | 0.0065766  |   0.0 | 20.01
Neigh   | 0          | 0          | 0          |   0.0 |  0.00
Comm    | 0.00085506 | 0.00085506 | 0.00085506 |   0.0 |  2.60
Output  | 0          | 0          | 0          |   0.0 |  0.00
Modify  | 0          | 0          | 0          |   0.0 |  0.00
Other   |            | 0.00059    |            |       |  1.80

Nlocal:            350 ave         350 max         350 min
Histogram: 1 0 0 0 0 0 0 0 0 0
Nghost:           2152 ave        2152 max        2152 min
Histogram: 1 0 0 0 0 0 0 0 0 0
Neighs:          21312 ave       21312 max       21312 min
Histogram: 1 0 0 0 0 0 0 0 0 0

Total # of neighbors = 21312
Ave neighs/atom = 60.891429
Ave special neighs/atom = 6.1942857
Neighbor list builds = 0
Dangerous builds = 0

# Obtain new stress tensor

variable tmp equal pxx
variable pxx1 equal ${tmp}
variable pxx1 equal 9940.0530739119
variable tmp equal pyy
variable pyy1 equal ${tmp}
variable pyy1 equal 1132.39849609268
variable tmp equal pzz
variable pzz1 equal ${tmp}
variable pzz1 equal 4518.5078547313
variable tmp equal pxy
variable pxy1 equal ${tmp}
variable pxy1 equal 4337.56955681992
variable tmp equal pxz
variable pxz1 equal ${tmp}
variable pxz1 equal -3070.56715473291
variable tmp equal pyz
variable pyz1 equal ${tmp}
variable pyz1 equal 1046.79641538447

# Compute elastic constant from pressure tensor

variable C1neg equal ${d1}
variable C1neg equal 33.6790974769167
variable C2neg equal ${d2}
variable C2neg equal -9.51093746620805
variable C3neg equal ${d3}
variable C3neg equal 8.7480976042063
variable C4neg equal ${d4}
variable C4neg equal 5.92699513599615
variable C5neg equal ${d5}
variable C5neg equal 10.6312434107107
variable C6neg equal ${d6}
variable C6neg equal 5.27556866691785

# Reset box and simulation parameters

clear
OMP_NUM_THREADS environment is not set. Defaulting to 1 thread.
  using 1 OpenMP thread(s) per MPI task
box tilt large

The 'box' command has been removed and will be ignored

read_restart restart_333U-50C-5-vasp.equil
Reading restart file ...
  restart file = 10 Sep 2025, LAMMPS = 10 Sep 2025
  restoring atom style full from restart
  triclinic box = (-0.14240753 -0.13917082 -0.18829246) to (15.820572 13.683501 17.826547) with tilt (-7.1855434 -1.036063 0.68944016)
WARNING: Triclinic box skew is large. LAMMPS will run inefficiently. (src/domain.cpp:221)
  1 by 1 by 1 MPI processor grid
  restoring pair style lj/cut from restart
  restoring bond style harmonic from restart
  restoring angle style hybrid from restart
  restoring dihedral style harmonic from restart
  350 atoms
  375 bonds
  709 angles
  879 dihedrals
Finding 1-2 1-3 1-4 neighbors ...
  special bond factors lj:    0        0        1       
  special bond factors coul:  0        0        1       
     4 = max # of 1-2 neighbors
     8 = max # of 1-3 neighbors
    12 = max # of special neighbors
  special bonds CPU = 0.000 seconds
  read_restart CPU = 0.002 seconds
include ./input/angles_333U-50C-5-vasp.mod
angle_style hybrid fourier cosine/periodic
angle_coeff 1 fourier 157.882480        0.343737        0.374972        0.281246
angle_coeff 2 fourier 221.735285        0.343737        0.374972        0.281246
angle_coeff 3 fourier 32.417871        0.343737        0.374972        0.281246
angle_coeff 4 fourier 83.380072        0.343737        0.374972        0.281246
angle_coeff 5 fourier 114.246973        0.343737        0.374972        0.281246
angle_coeff 6 fourier 58.020602        0.343737        0.374972        0.281246
angle_coeff 7 fourier 90.420412        0.343737        0.374972        0.281246
angle_coeff 8 fourier 75.498766        0.343737        0.374972        0.281246
angle_coeff 9 cosine/periodic 88.853997              -1               3

# Positive deformation

variable delta equal ${up}*${len0}
variable delta equal 0.02*${len0}
variable delta equal 0.02*15.9629790609699
variable deltaxy equal ${up}*xy
variable deltaxy equal 0.02*xy
variable deltaxz equal ${up}*xz
variable deltaxz equal 0.02*xz
variable deltayz equal ${up}*yz
variable deltayz equal 0.02*yz
if "${dir} == 1" then    "change_box all x delta 0 ${delta} xy delta ${deltaxy} xz delta ${deltaxz} remap units box"
change_box all x delta 0 ${delta} xy delta ${deltaxy} xz delta ${deltaxz} remap units box
change_box all x delta 0 0.319259581219398 xy delta ${deltaxy} xz delta ${deltaxz} remap units box
change_box all x delta 0 0.319259581219398 xy delta -0.143710868637689 xz delta ${deltaxz} remap units box
change_box all x delta 0 0.319259581219398 xy delta -0.143710868637689 xz delta -0.0207212603446704 remap units box
Changing box ...
WARNING: Triclinic box skew is large. LAMMPS will run inefficiently. (src/domain.cpp:221)
  triclinic box = (-0.14240753 -0.13917082 -0.18829246) to (16.139831 13.683501 17.826547) with tilt (-7.1855434 -1.036063 0.68944016)
WARNING: Triclinic box skew is large. LAMMPS will run inefficiently. (src/domain.cpp:221)
  triclinic box = (-0.14240753 -0.13917082 -0.18829246) to (16.139831 13.683501 17.826547) with tilt (-7.3292543 -1.036063 0.68944016)
WARNING: Triclinic box skew is large. LAMMPS will run inefficiently. (src/domain.cpp:221)
  triclinic box = (-0.14240753 -0.13917082 -0.18829246) to (16.139831 13.683501 17.826547) with tilt (-7.3292543 -1.0567843 0.68944016)
if "${dir} == 2" then    "change_box all y delta 0 ${delta} yz delta ${deltayz} remap units box"
if "${dir} == 3" then    "change_box all z delta 0 ${delta} remap units box"
if "${dir} == 4" then    "change_box all yz delta ${delta} remap units box"
if "${dir} == 5" then    "change_box all xz delta ${delta} remap units box"
if "${dir} == 6" then    "change_box all xy delta ${delta} remap units box"

# Relax atoms positions

minimize ${etol} ${ftol} ${maxiter} ${maxeval}
minimize 0 ${ftol} ${maxiter} ${maxeval}
minimize 0 1e-10 ${maxiter} ${maxeval}
minimize 0 1e-10 100000 ${maxeval}
minimize 0 1e-10 100000 100000
Generated 6 of 6 mixed pair_coeff terms from arithmetic mixing rule
Neighbor list info ...
  update: every = 1 steps, delay = 0 steps, check = yes
  max neighbors/atom: 2000, page size: 100000
  master list distance cutoff = 7
  ghost atom cutoff = 7
  binsize = 3.5, bins = 8 5 6
  1 neighbor lists, perpetual/occasional/extra = 1 0 0
  (1) pair lj/cut, perpetual
      attributes: half, newton on
      pair build: half/bin/newton/tri
      stencil: half/bin/3d/tri
      bin: standard
WARNING: Inconsistent image flags
For more information see https://docs.lammps.org/err0027 (src/domain.cpp:1052)
Per MPI rank memory allocation (min/avg/max) = 17.5 | 17.5 | 17.5 Mbytes
   Step          Temp          E_pair         E_mol          TotEng         Press     
    250430   274.88308     -446.84312      576.90958      416.02807     -20791.452    
    250460   274.88308     -459.04934      470.5076       297.41987     -8347.0261    
Loop time of 0.0255945 on 1 procs for 30 steps with 350 atoms

100.0% CPU use with 1 MPI tasks x 1 OpenMP threads

Minimization stats:
  Stopping criterion = linesearch alpha is zero
  Energy initial, next-to-last, final = 
       130.06645618697   11.4582589963542   11.4582589963542
  Force two-norm initial, final = 208.41855 20.483801
  Force max component initial, final = 21.758723 3.2371658
  Final line search alpha, max atom move = 1.5068073e-11 4.8777852e-11
  Iterations, force evaluations = 30 117

MPI task timing breakdown:
Section |  min time  |  avg time  |  max time  |%varavg| %total
---------------------------------------------------------------
Pair    | 0.019147   | 0.019147   | 0.019147   |   0.0 | 74.81
Bond    | 0.0053671  | 0.0053671  | 0.0053671  |   0.0 | 20.97
Neigh   | 0          | 0          | 0          |   0.0 |  0.00
Comm    | 0.00060204 | 0.00060204 | 0.00060204 |   0.0 |  2.35
Output  | 0          | 0          | 0          |   0.0 |  0.00
Modify  | 0          | 0          | 0          |   0.0 |  0.00
Other   |            | 0.0004781  |            |       |  1.87

Nlocal:            350 ave         350 max         350 min
Histogram: 1 0 0 0 0 0 0 0 0 0
Nghost:           2120 ave        2120 max        2120 min
Histogram: 1 0 0 0 0 0 0 0 0 0
Neighs:          20406 ave       20406 max       20406 min
Histogram: 1 0 0 0 0 0 0 0 0 0

Total # of neighbors = 20406
Ave neighs/atom = 58.302857
Ave special neighs/atom = 6.1942857
Neighbor list builds = 0
Dangerous builds = 0

# Obtain new stress tensor

variable tmp equal pe
variable e1 equal ${tmp}
variable e1 equal 11.4582589963542
variable tmp equal press
variable p1 equal ${tmp}
variable p1 equal -8347.02610422738
variable tmp equal pxx
variable pxx1 equal ${tmp}
variable pxx1 equal -12686.4109155056
variable tmp equal pyy
variable pyy1 equal ${tmp}
variable pyy1 equal -7826.09581743067
variable tmp equal pzz
variable pzz1 equal ${tmp}
variable pzz1 equal -4528.57157974586
variable tmp equal pxy
variable pxy1 equal ${tmp}
variable pxy1 equal 3571.060153186
variable tmp equal pxz
variable pxz1 equal ${tmp}
variable pxz1 equal -4214.31720703197
variable tmp equal pyz
variable pyz1 equal ${tmp}
variable pyz1 equal 1634.56871243256

# Compute elastic constant from pressure tensor

variable C1pos equal ${d1}
variable C1pos equal 79.4532224701709
variable C2pos equal ${d2}
variable C2pos equal 54.3034090338248
variable C3pos equal ${d3}
variable C3pos equal 36.4872995681795
variable C4pos equal ${d4}
variable C4pos equal -8.8658566212366
variable C5pos equal ${d5}
variable C5pos equal -4.9124931492154
variable C6pos equal ${d6}
variable C6pos equal -1.44302164874825

# Combine positive and negative

variable C1${dir} equal 0.5*(${C1neg}+${C1pos})
variable C11 equal 0.5*(${C1neg}+${C1pos})
variable C11 equal 0.5*(33.6790974769167+${C1pos})
variable C11 equal 0.5*(33.6790974769167+79.4532224701709)
variable C2${dir} equal 0.5*(${C2neg}+${C2pos})
variable C21 equal 0.5*(${C2neg}+${C2pos})
variable C21 equal 0.5*(-9.51093746620805+${C2pos})
variable C21 equal 0.5*(-9.51093746620805+54.3034090338248)
variable C3${dir} equal 0.5*(${C3neg}+${C3pos})
variable C31 equal 0.5*(${C3neg}+${C3pos})
variable C31 equal 0.5*(8.7480976042063+${C3pos})
variable C31 equal 0.5*(8.7480976042063+36.4872995681795)
variable C4${dir} equal 0.5*(${C4neg}+${C4pos})
variable C41 equal 0.5*(${C4neg}+${C4pos})
variable C41 equal 0.5*(5.92699513599615+${C4pos})
variable C41 equal 0.5*(5.92699513599615+-8.8658566212366)
variable C5${dir} equal 0.5*(${C5neg}+${C5pos})
variable C51 equal 0.5*(${C5neg}+${C5pos})
variable C51 equal 0.5*(10.6312434107107+${C5pos})
variable C51 equal 0.5*(10.6312434107107+-4.9124931492154)
variable C6${dir} equal 0.5*(${C6neg}+${C6pos})
variable C61 equal 0.5*(${C6neg}+${C6pos})
variable C61 equal 0.5*(5.27556866691785+${C6pos})
variable C61 equal 0.5*(5.27556866691785+-1.44302164874825)

# Delete dir to make sure it is not reused

variable dir delete

# uyy Perturbation

variable dir equal 2
include ./input/displace_333U-50C-5-vasp.mod
if "${dir} == 1" then    "variable len0 equal ${lx0}"
if "${dir} == 2" then    "variable len0 equal ${ly0}"
variable len0 equal ${ly0}
variable len0 equal 13.8226716444906
if "${dir} == 3" then    "variable len0 equal ${lz0}"
if "${dir} == 4" then    "variable len0 equal ${lz0}"
if "${dir} == 5" then    "variable len0 equal ${lz0}"
if "${dir} == 6" then    "variable len0 equal ${ly0}"

# Reset box and simulation parameters

clear
OMP_NUM_THREADS environment is not set. Defaulting to 1 thread.
  using 1 OpenMP thread(s) per MPI task
box tilt large

The 'box' command has been removed and will be ignored

read_restart restart_333U-50C-5-vasp.equil
Reading restart file ...
  restart file = 10 Sep 2025, LAMMPS = 10 Sep 2025
  restoring atom style full from restart
  triclinic box = (-0.14240753 -0.13917082 -0.18829246) to (15.820572 13.683501 17.826547) with tilt (-7.1855434 -1.036063 0.68944016)
WARNING: Triclinic box skew is large. LAMMPS will run inefficiently. (src/domain.cpp:221)
  1 by 1 by 1 MPI processor grid
  restoring pair style lj/cut from restart
  restoring bond style harmonic from restart
  restoring angle style hybrid from restart
  restoring dihedral style harmonic from restart
  350 atoms
  375 bonds
  709 angles
  879 dihedrals
Finding 1-2 1-3 1-4 neighbors ...
  special bond factors lj:    0        0        1       
  special bond factors coul:  0        0        1       
     4 = max # of 1-2 neighbors
     8 = max # of 1-3 neighbors
    12 = max # of special neighbors
  special bonds CPU = 0.000 seconds
  read_restart CPU = 0.002 seconds
include ./input/angles_333U-50C-5-vasp.mod
angle_style hybrid fourier cosine/periodic
angle_coeff 1 fourier 157.882480        0.343737        0.374972        0.281246
angle_coeff 2 fourier 221.735285        0.343737        0.374972        0.281246
angle_coeff 3 fourier 32.417871        0.343737        0.374972        0.281246
angle_coeff 4 fourier 83.380072        0.343737        0.374972        0.281246
angle_coeff 5 fourier 114.246973        0.343737        0.374972        0.281246
angle_coeff 6 fourier 58.020602        0.343737        0.374972        0.281246
angle_coeff 7 fourier 90.420412        0.343737        0.374972        0.281246
angle_coeff 8 fourier 75.498766        0.343737        0.374972        0.281246
angle_coeff 9 cosine/periodic 88.853997              -1               3

# Negative deformation

variable delta equal -${up}*${len0}
variable delta equal -0.02*${len0}
variable delta equal -0.02*13.8226716444906
variable deltaxy equal -${up}*xy
variable deltaxy equal -0.02*xy
variable deltaxz equal -${up}*xz
variable deltaxz equal -0.02*xz
variable deltayz equal -${up}*yz
variable deltayz equal -0.02*yz
if "${dir} == 1" then    "change_box all x delta 0 ${delta} xy delta ${deltaxy} xz delta ${deltaxz} remap units box"
if "${dir} == 2" then    "change_box all y delta 0 ${delta} yz delta ${deltayz} remap units box"
change_box all y delta 0 ${delta} yz delta ${deltayz} remap units box
change_box all y delta 0 -0.276453432889812 yz delta ${deltayz} remap units box
change_box all y delta 0 -0.276453432889812 yz delta -0.0137888032175924 remap units box
Changing box ...
WARNING: Triclinic box skew is large. LAMMPS will run inefficiently. (src/domain.cpp:221)
  triclinic box = (-0.14240753 -0.13917082 -0.18829246) to (15.820572 13.407047 17.826547) with tilt (-7.1855434 -1.036063 0.68944016)
WARNING: Triclinic box skew is large. LAMMPS will run inefficiently. (src/domain.cpp:221)
  triclinic box = (-0.14240753 -0.13917082 -0.18829246) to (15.820572 13.407047 17.826547) with tilt (-7.1855434 -1.036063 0.67565136)
if "${dir} == 3" then    "change_box all z delta 0 ${delta} remap units box"
if "${dir} == 4" then    "change_box all yz delta ${delta} remap units box"
if "${dir} == 5" then    "change_box all xz delta ${delta} remap units box"
if "${dir} == 6" then    "change_box all xy delta ${delta} remap units box"

# Relax atoms positions

minimize ${etol} ${ftol} ${maxiter} ${maxeval}
minimize 0 ${ftol} ${maxiter} ${maxeval}
minimize 0 1e-10 ${maxiter} ${maxeval}
minimize 0 1e-10 100000 ${maxeval}
minimize 0 1e-10 100000 100000
Generated 6 of 6 mixed pair_coeff terms from arithmetic mixing rule
Neighbor list info ...
  update: every = 1 steps, delay = 0 steps, check = yes
  max neighbors/atom: 2000, page size: 100000
  master list distance cutoff = 7
  ghost atom cutoff = 7
  binsize = 3.5, bins = 7 5 6
  1 neighbor lists, perpetual/occasional/extra = 1 0 0
  (1) pair lj/cut, perpetual
      attributes: half, newton on
      pair build: half/bin/newton/tri
      stencil: half/bin/3d/tri
      bin: standard
WARNING: Inconsistent image flags
For more information see https://docs.lammps.org/err0027 (src/domain.cpp:1052)
Per MPI rank memory allocation (min/avg/max) = 17.51 | 17.51 | 17.51 Mbytes
   Step          Temp          E_pair         E_mol          TotEng         Press     
    250430   274.88308     -415.34556      545.55032      416.16637      28777.196    
    250460   274.88308     -436.75733      435.56805      284.77234      6006.4468    
Loop time of 0.0389737 on 1 procs for 30 steps with 350 atoms

100.0% CPU use with 1 MPI tasks x 1 OpenMP threads

Minimization stats:
  Stopping criterion = linesearch alpha is zero
  Energy initial, next-to-last, final = 
      130.204757300144  -1.18927711642954  -1.18927711642954
  Force two-norm initial, final = 221.23398 10.013222
  Force max component initial, final = 25.470731 1.7298987
  Final line search alpha, max atom move = 1.0767365e-10 1.8626451e-10
  Iterations, force evaluations = 30 169

MPI task timing breakdown:
Section |  min time  |  avg time  |  max time  |%varavg| %total
---------------------------------------------------------------
Pair    | 0.029643   | 0.029643   | 0.029643   |   0.0 | 76.06
Bond    | 0.0077612  | 0.0077612  | 0.0077612  |   0.0 | 19.91
Neigh   | 0          | 0          | 0          |   0.0 |  0.00
Comm    | 0.00093067 | 0.00093067 | 0.00093067 |   0.0 |  2.39
Output  | 0          | 0          | 0          |   0.0 |  0.00
Modify  | 0          | 0          | 0          |   0.0 |  0.00
Other   |            | 0.000639   |            |       |  1.64

Nlocal:            350 ave         350 max         350 min
Histogram: 1 0 0 0 0 0 0 0 0 0
Nghost:           2176 ave        2176 max        2176 min
Histogram: 1 0 0 0 0 0 0 0 0 0
Neighs:          21340 ave       21340 max       21340 min
Histogram: 1 0 0 0 0 0 0 0 0 0

Total # of neighbors = 21340
Ave neighs/atom = 60.971429
Ave special neighs/atom = 6.1942857
Neighbor list builds = 0
Dangerous builds = 0

# Obtain new stress tensor

variable tmp equal pxx
variable pxx1 equal ${tmp}
variable pxx1 equal 3946.90279794819
variable tmp equal pyy
variable pyy1 equal ${tmp}
variable pyy1 equal 9211.8278203806
variable tmp equal pzz
variable pzz1 equal ${tmp}
variable pzz1 equal 4860.60987104415
variable tmp equal pxy
variable pxy1 equal ${tmp}
variable pxy1 equal 3986.3198624399
variable tmp equal pxz
variable pxz1 equal ${tmp}
variable pxz1 equal -4891.57470290237
variable tmp equal pyz
variable pyz1 equal ${tmp}
variable pyz1 equal 1682.88108533821

# Compute elastic constant from pressure tensor

variable C1neg equal ${d1}
variable C1neg equal 3.7133460970981
variable C2neg equal ${d2}
variable C2neg equal 30.8862091552316
variable C3neg equal ${d3}
variable C3neg equal 10.4586076857706
variable C4neg equal ${d4}
variable C4neg equal 9.10741848576484
variable C5neg equal ${d5}
variable C5neg equal 1.5262056698634
variable C6neg equal ${d6}
variable C6neg equal 3.51932019501775

# Reset box and simulation parameters

clear
OMP_NUM_THREADS environment is not set. Defaulting to 1 thread.
  using 1 OpenMP thread(s) per MPI task
box tilt large

The 'box' command has been removed and will be ignored

read_restart restart_333U-50C-5-vasp.equil
Reading restart file ...
  restart file = 10 Sep 2025, LAMMPS = 10 Sep 2025
  restoring atom style full from restart
  triclinic box = (-0.14240753 -0.13917082 -0.18829246) to (15.820572 13.683501 17.826547) with tilt (-7.1855434 -1.036063 0.68944016)
WARNING: Triclinic box skew is large. LAMMPS will run inefficiently. (src/domain.cpp:221)
  1 by 1 by 1 MPI processor grid
  restoring pair style lj/cut from restart
  restoring bond style harmonic from restart
  restoring angle style hybrid from restart
  restoring dihedral style harmonic from restart
  350 atoms
  375 bonds
  709 angles
  879 dihedrals
Finding 1-2 1-3 1-4 neighbors ...
  special bond factors lj:    0        0        1       
  special bond factors coul:  0        0        1       
     4 = max # of 1-2 neighbors
     8 = max # of 1-3 neighbors
    12 = max # of special neighbors
  special bonds CPU = 0.000 seconds
  read_restart CPU = 0.001 seconds
include ./input/angles_333U-50C-5-vasp.mod
angle_style hybrid fourier cosine/periodic
angle_coeff 1 fourier 157.882480        0.343737        0.374972        0.281246
angle_coeff 2 fourier 221.735285        0.343737        0.374972        0.281246
angle_coeff 3 fourier 32.417871        0.343737        0.374972        0.281246
angle_coeff 4 fourier 83.380072        0.343737        0.374972        0.281246
angle_coeff 5 fourier 114.246973        0.343737        0.374972        0.281246
angle_coeff 6 fourier 58.020602        0.343737        0.374972        0.281246
angle_coeff 7 fourier 90.420412        0.343737        0.374972        0.281246
angle_coeff 8 fourier 75.498766        0.343737        0.374972        0.281246
angle_coeff 9 cosine/periodic 88.853997              -1               3

# Positive deformation

variable delta equal ${up}*${len0}
variable delta equal 0.02*${len0}
variable delta equal 0.02*13.8226716444906
variable deltaxy equal ${up}*xy
variable deltaxy equal 0.02*xy
variable deltaxz equal ${up}*xz
variable deltaxz equal 0.02*xz
variable deltayz equal ${up}*yz
variable deltayz equal 0.02*yz
if "${dir} == 1" then    "change_box all x delta 0 ${delta} xy delta ${deltaxy} xz delta ${deltaxz} remap units box"
if "${dir} == 2" then    "change_box all y delta 0 ${delta} yz delta ${deltayz} remap units box"
change_box all y delta 0 ${delta} yz delta ${deltayz} remap units box
change_box all y delta 0 0.276453432889812 yz delta ${deltayz} remap units box
change_box all y delta 0 0.276453432889812 yz delta 0.0137888032175924 remap units box
Changing box ...
WARNING: Triclinic box skew is large. LAMMPS will run inefficiently. (src/domain.cpp:221)
  triclinic box = (-0.14240753 -0.13917082 -0.18829246) to (15.820572 13.959954 17.826547) with tilt (-7.1855434 -1.036063 0.68944016)
WARNING: Triclinic box skew is large. LAMMPS will run inefficiently. (src/domain.cpp:221)
  triclinic box = (-0.14240753 -0.13917082 -0.18829246) to (15.820572 13.959954 17.826547) with tilt (-7.1855434 -1.036063 0.70322896)
if "${dir} == 3" then    "change_box all z delta 0 ${delta} remap units box"
if "${dir} == 4" then    "change_box all yz delta ${delta} remap units box"
if "${dir} == 5" then    "change_box all xz delta ${delta} remap units box"
if "${dir} == 6" then    "change_box all xy delta ${delta} remap units box"

# Relax atoms positions

minimize ${etol} ${ftol} ${maxiter} ${maxeval}
minimize 0 ${ftol} ${maxiter} ${maxeval}
minimize 0 1e-10 ${maxiter} ${maxeval}
minimize 0 1e-10 100000 ${maxeval}
minimize 0 1e-10 100000 100000
Generated 6 of 6 mixed pair_coeff terms from arithmetic mixing rule
Neighbor list info ...
  update: every = 1 steps, delay = 0 steps, check = yes
  max neighbors/atom: 2000, page size: 100000
  master list distance cutoff = 7
  ghost atom cutoff = 7
  binsize = 3.5, bins = 7 5 6
  1 neighbor lists, perpetual/occasional/extra = 1 0 0
  (1) pair lj/cut, perpetual
      attributes: half, newton on
      pair build: half/bin/newton/tri
      stencil: half/bin/3d/tri
      bin: standard
WARNING: Inconsistent image flags
For more information see https://docs.lammps.org/err0027 (src/domain.cpp:1052)
Per MPI rank memory allocation (min/avg/max) = 17.5 | 17.5 | 17.5 Mbytes
   Step          Temp          E_pair         E_mol          TotEng         Press     
    250430   274.88308     -445.73226      577.29969      417.52904     -21932.697    
    250464   274.88308     -457.16156      469.82904      298.62909     -8091.349     
Loop time of 0.0271694 on 1 procs for 34 steps with 350 atoms

100.0% CPU use with 1 MPI tasks x 1 OpenMP threads

Minimization stats:
  Stopping criterion = linesearch alpha is zero
  Energy initial, next-to-last, final = 
      131.567424402492    12.667478341917    12.667478341917
  Force two-norm initial, final = 213.80499 17.841698
  Force max component initial, final = 26.011713 2.733546
  Final line search alpha, max atom move = 3.0215777e-11 8.2596216e-11
  Iterations, force evaluations = 34 122

MPI task timing breakdown:
Section |  min time  |  avg time  |  max time  |%varavg| %total
---------------------------------------------------------------
Pair    | 0.020452   | 0.020452   | 0.020452   |   0.0 | 75.28
Bond    | 0.0055856  | 0.0055856  | 0.0055856  |   0.0 | 20.56
Neigh   | 0          | 0          | 0          |   0.0 |  0.00
Comm    | 0.00062104 | 0.00062104 | 0.00062104 |   0.0 |  2.29
Output  | 0          | 0          | 0          |   0.0 |  0.00
Modify  | 0          | 0          | 0          |   0.0 |  0.00
Other   |            | 0.0005106  |            |       |  1.88

Nlocal:            350 ave         350 max         350 min
Histogram: 1 0 0 0 0 0 0 0 0 0
Nghost:           2106 ave        2106 max        2106 min
Histogram: 1 0 0 0 0 0 0 0 0 0
Neighs:          20412 ave       20412 max       20412 min
Histogram: 1 0 0 0 0 0 0 0 0 0

Total # of neighbors = 20412
Ave neighs/atom = 58.32
Ave special neighs/atom = 6.1942857
Neighbor list builds = 0
Dangerous builds = 0

# Obtain new stress tensor

variable tmp equal pe
variable e1 equal ${tmp}
variable e1 equal 12.667478341917
variable tmp equal press
variable p1 equal ${tmp}
variable p1 equal -8091.34899091326
variable tmp equal pxx
variable pxx1 equal ${tmp}
variable pxx1 equal -5607.02863500408
variable tmp equal pyy
variable pyy1 equal ${tmp}
variable pyy1 equal -14802.866673129
variable tmp equal pzz
variable pzz1 equal ${tmp}
variable pzz1 equal -3864.15166460668
variable tmp equal pxy
variable pxy1 equal ${tmp}
variable pxy1 equal 4395.06565475713
variable tmp equal pxz
variable pxz1 equal ${tmp}
variable pxz1 equal -3111.11706642605
variable tmp equal pyz
variable pyz1 equal ${tmp}
variable pyz1 equal 1024.30523188401

# Compute elastic constant from pressure tensor

variable C1pos equal ${d1}
variable C1pos equal 44.0563110676632
variable C2pos equal ${d2}
variable C2pos equal 89.1872633123164
variable C3pos equal ${d3}
variable C3pos equal 33.1651999924836
variable C4pos equal ${d4}
variable C4pos equal -5.81453921849385
variable C5pos equal ${d5}
variable C5pos equal -10.428493852245
variable C6pos equal ${d6}
variable C6pos equal -5.5630491566039

# Combine positive and negative

variable C1${dir} equal 0.5*(${C1neg}+${C1pos})
variable C12 equal 0.5*(${C1neg}+${C1pos})
variable C12 equal 0.5*(3.7133460970981+${C1pos})
variable C12 equal 0.5*(3.7133460970981+44.0563110676632)
variable C2${dir} equal 0.5*(${C2neg}+${C2pos})
variable C22 equal 0.5*(${C2neg}+${C2pos})
variable C22 equal 0.5*(30.8862091552316+${C2pos})
variable C22 equal 0.5*(30.8862091552316+89.1872633123164)
variable C3${dir} equal 0.5*(${C3neg}+${C3pos})
variable C32 equal 0.5*(${C3neg}+${C3pos})
variable C32 equal 0.5*(10.4586076857706+${C3pos})
variable C32 equal 0.5*(10.4586076857706+33.1651999924836)
variable C4${dir} equal 0.5*(${C4neg}+${C4pos})
variable C42 equal 0.5*(${C4neg}+${C4pos})
variable C42 equal 0.5*(9.10741848576484+${C4pos})
variable C42 equal 0.5*(9.10741848576484+-5.81453921849385)
variable C5${dir} equal 0.5*(${C5neg}+${C5pos})
variable C52 equal 0.5*(${C5neg}+${C5pos})
variable C52 equal 0.5*(1.5262056698634+${C5pos})
variable C52 equal 0.5*(1.5262056698634+-10.428493852245)
variable C6${dir} equal 0.5*(${C6neg}+${C6pos})
variable C62 equal 0.5*(${C6neg}+${C6pos})
variable C62 equal 0.5*(3.51932019501775+${C6pos})
variable C62 equal 0.5*(3.51932019501775+-5.5630491566039)

# Delete dir to make sure it is not reused

variable dir delete

# uzz Perturbation

variable dir equal 3
include ./input/displace_333U-50C-5-vasp.mod
if "${dir} == 1" then    "variable len0 equal ${lx0}"
if "${dir} == 2" then    "variable len0 equal ${ly0}"
if "${dir} == 3" then    "variable len0 equal ${lz0}"
variable len0 equal ${lz0}
variable len0 equal 18.0148399249157
if "${dir} == 4" then    "variable len0 equal ${lz0}"
if "${dir} == 5" then    "variable len0 equal ${lz0}"
if "${dir} == 6" then    "variable len0 equal ${ly0}"

# Reset box and simulation parameters

clear
OMP_NUM_THREADS environment is not set. Defaulting to 1 thread.
  using 1 OpenMP thread(s) per MPI task
box tilt large

The 'box' command has been removed and will be ignored

read_restart restart_333U-50C-5-vasp.equil
Reading restart file ...
  restart file = 10 Sep 2025, LAMMPS = 10 Sep 2025
  restoring atom style full from restart
  triclinic box = (-0.14240753 -0.13917082 -0.18829246) to (15.820572 13.683501 17.826547) with tilt (-7.1855434 -1.036063 0.68944016)
WARNING: Triclinic box skew is large. LAMMPS will run inefficiently. (src/domain.cpp:221)
  1 by 1 by 1 MPI processor grid
  restoring pair style lj/cut from restart
  restoring bond style harmonic from restart
  restoring angle style hybrid from restart
  restoring dihedral style harmonic from restart
  350 atoms
  375 bonds
  709 angles
  879 dihedrals
Finding 1-2 1-3 1-4 neighbors ...
  special bond factors lj:    0        0        1       
  special bond factors coul:  0        0        1       
     4 = max # of 1-2 neighbors
     8 = max # of 1-3 neighbors
    12 = max # of special neighbors
  special bonds CPU = 0.000 seconds
  read_restart CPU = 0.001 seconds
include ./input/angles_333U-50C-5-vasp.mod
angle_style hybrid fourier cosine/periodic
angle_coeff 1 fourier 157.882480        0.343737        0.374972        0.281246
angle_coeff 2 fourier 221.735285        0.343737        0.374972        0.281246
angle_coeff 3 fourier 32.417871        0.343737        0.374972        0.281246
angle_coeff 4 fourier 83.380072        0.343737        0.374972        0.281246
angle_coeff 5 fourier 114.246973        0.343737        0.374972        0.281246
angle_coeff 6 fourier 58.020602        0.343737        0.374972        0.281246
angle_coeff 7 fourier 90.420412        0.343737        0.374972        0.281246
angle_coeff 8 fourier 75.498766        0.343737        0.374972        0.281246
angle_coeff 9 cosine/periodic 88.853997              -1               3

# Negative deformation

variable delta equal -${up}*${len0}
variable delta equal -0.02*${len0}
variable delta equal -0.02*18.0148399249157
variable deltaxy equal -${up}*xy
variable deltaxy equal -0.02*xy
variable deltaxz equal -${up}*xz
variable deltaxz equal -0.02*xz
variable deltayz equal -${up}*yz
variable deltayz equal -0.02*yz
if "${dir} == 1" then    "change_box all x delta 0 ${delta} xy delta ${deltaxy} xz delta ${deltaxz} remap units box"
if "${dir} == 2" then    "change_box all y delta 0 ${delta} yz delta ${deltayz} remap units box"
if "${dir} == 3" then    "change_box all z delta 0 ${delta} remap units box"
change_box all z delta 0 ${delta} remap units box
change_box all z delta 0 -0.360296798498314 remap units box
Changing box ...
WARNING: Triclinic box skew is large. LAMMPS will run inefficiently. (src/domain.cpp:221)
  triclinic box = (-0.14240753 -0.13917082 -0.18829246) to (15.820572 13.683501 17.466251) with tilt (-7.1855434 -1.036063 0.68944016)
if "${dir} == 4" then    "change_box all yz delta ${delta} remap units box"
if "${dir} == 5" then    "change_box all xz delta ${delta} remap units box"
if "${dir} == 6" then    "change_box all xy delta ${delta} remap units box"

# Relax atoms positions

minimize ${etol} ${ftol} ${maxiter} ${maxeval}
minimize 0 ${ftol} ${maxiter} ${maxeval}
minimize 0 1e-10 ${maxiter} ${maxeval}
minimize 0 1e-10 100000 ${maxeval}
minimize 0 1e-10 100000 100000
Generated 6 of 6 mixed pair_coeff terms from arithmetic mixing rule
Neighbor list info ...
  update: every = 1 steps, delay = 0 steps, check = yes
  max neighbors/atom: 2000, page size: 100000
  master list distance cutoff = 7
  ghost atom cutoff = 7
  binsize = 3.5, bins = 7 5 6
  1 neighbor lists, perpetual/occasional/extra = 1 0 0
  (1) pair lj/cut, perpetual
      attributes: half, newton on
      pair build: half/bin/newton/tri
      stencil: half/bin/3d/tri
      bin: standard
WARNING: Inconsistent image flags
For more information see https://docs.lammps.org/err0027 (src/domain.cpp:1052)
Per MPI rank memory allocation (min/avg/max) = 17.51 | 17.51 | 17.51 Mbytes
   Step          Temp          E_pair         E_mol          TotEng         Press     
    250430   274.88308     -411.71816      542.1202       416.36365      28606.179    
    250484   274.88308     -435.49117      436.91685      287.38729      5079.2391    
Loop time of 0.131836 on 1 procs for 54 steps with 350 atoms

100.0% CPU use with 1 MPI tasks x 1 OpenMP threads

Minimization stats:
  Stopping criterion = linesearch alpha is zero
  Energy initial, next-to-last, final = 
      130.402037007832   1.42568010499707   1.42568010499707
  Force two-norm initial, final = 207.56139 11.854413
  Force max component initial, final = 21.887791 1.427775
  Final line search alpha, max atom move = 6.5228944e-11 9.3132257e-11
  Iterations, force evaluations = 54 590

MPI task timing breakdown:
Section |  min time  |  avg time  |  max time  |%varavg| %total
---------------------------------------------------------------
Pair    | 0.099767   | 0.099767   | 0.099767   |   0.0 | 75.68
Bond    | 0.027032   | 0.027032   | 0.027032   |   0.0 | 20.50
Neigh   | 0          | 0          | 0          |   0.0 |  0.00
Comm    | 0.0031196  | 0.0031196  | 0.0031196  |   0.0 |  2.37
Output  | 0          | 0          | 0          |   0.0 |  0.00
Modify  | 0          | 0          | 0          |   0.0 |  0.00
Other   |            | 0.001917   |            |       |  1.45

Nlocal:            350 ave         350 max         350 min
Histogram: 1 0 0 0 0 0 0 0 0 0
Nghost:           2160 ave        2160 max        2160 min
Histogram: 1 0 0 0 0 0 0 0 0 0
Neighs:          21329 ave       21329 max       21329 min
Histogram: 1 0 0 0 0 0 0 0 0 0

Total # of neighbors = 21329
Ave neighs/atom = 60.94
Ave special neighs/atom = 6.1942857
Neighbor list builds = 0
Dangerous builds = 0

# Obtain new stress tensor

variable tmp equal pxx
variable pxx1 equal ${tmp}
variable pxx1 equal 2747.10611520768
variable tmp equal pyy
variable pyy1 equal ${tmp}
variable pyy1 equal 639.763275105356
variable tmp equal pzz
variable pzz1 equal ${tmp}
variable pzz1 equal 11850.8479078856
variable tmp equal pxy
variable pxy1 equal ${tmp}
variable pxy1 equal 4883.69299868398
variable tmp equal pxz
variable pxz1 equal ${tmp}
variable pxz1 equal -4030.36551010846
variable tmp equal pyz
variable pyz1 equal ${tmp}
variable pyz1 equal 1472.29678714948

# Compute elastic constant from pressure tensor

variable C1neg equal ${d1}
variable C1neg equal -2.28563731660445
variable C2neg equal ${d2}
variable C2neg equal -11.9741135711447
variable C3neg equal ${d3}
variable C3neg equal 45.4097978699778
variable C4neg equal ${d4}
variable C4neg equal 8.0544969948212
variable C5neg equal ${d5}
variable C5neg equal 5.83225163383295
variable C6neg equal ${d6}
variable C6neg equal 8.00618587623815

# Reset box and simulation parameters

clear
OMP_NUM_THREADS environment is not set. Defaulting to 1 thread.
  using 1 OpenMP thread(s) per MPI task
box tilt large

The 'box' command has been removed and will be ignored

read_restart restart_333U-50C-5-vasp.equil
Reading restart file ...
  restart file = 10 Sep 2025, LAMMPS = 10 Sep 2025
  restoring atom style full from restart
  triclinic box = (-0.14240753 -0.13917082 -0.18829246) to (15.820572 13.683501 17.826547) with tilt (-7.1855434 -1.036063 0.68944016)
WARNING: Triclinic box skew is large. LAMMPS will run inefficiently. (src/domain.cpp:221)
  1 by 1 by 1 MPI processor grid
  restoring pair style lj/cut from restart
  restoring bond style harmonic from restart
  restoring angle style hybrid from restart
  restoring dihedral style harmonic from restart
  350 atoms
  375 bonds
  709 angles
  879 dihedrals
Finding 1-2 1-3 1-4 neighbors ...
  special bond factors lj:    0        0        1       
  special bond factors coul:  0        0        1       
     4 = max # of 1-2 neighbors
     8 = max # of 1-3 neighbors
    12 = max # of special neighbors
  special bonds CPU = 0.000 seconds
  read_restart CPU = 0.001 seconds
include ./input/angles_333U-50C-5-vasp.mod
angle_style hybrid fourier cosine/periodic
angle_coeff 1 fourier 157.882480        0.343737        0.374972        0.281246
angle_coeff 2 fourier 221.735285        0.343737        0.374972        0.281246
angle_coeff 3 fourier 32.417871        0.343737        0.374972        0.281246
angle_coeff 4 fourier 83.380072        0.343737        0.374972        0.281246
angle_coeff 5 fourier 114.246973        0.343737        0.374972        0.281246
angle_coeff 6 fourier 58.020602        0.343737        0.374972        0.281246
angle_coeff 7 fourier 90.420412        0.343737        0.374972        0.281246
angle_coeff 8 fourier 75.498766        0.343737        0.374972        0.281246
angle_coeff 9 cosine/periodic 88.853997              -1               3

# Positive deformation

variable delta equal ${up}*${len0}
variable delta equal 0.02*${len0}
variable delta equal 0.02*18.0148399249157
variable deltaxy equal ${up}*xy
variable deltaxy equal 0.02*xy
variable deltaxz equal ${up}*xz
variable deltaxz equal 0.02*xz
variable deltayz equal ${up}*yz
variable deltayz equal 0.02*yz
if "${dir} == 1" then    "change_box all x delta 0 ${delta} xy delta ${deltaxy} xz delta ${deltaxz} remap units box"
if "${dir} == 2" then    "change_box all y delta 0 ${delta} yz delta ${deltayz} remap units box"
if "${dir} == 3" then    "change_box all z delta 0 ${delta} remap units box"
change_box all z delta 0 ${delta} remap units box
change_box all z delta 0 0.360296798498314 remap units box
Changing box ...
WARNING: Triclinic box skew is large. LAMMPS will run inefficiently. (src/domain.cpp:221)
  triclinic box = (-0.14240753 -0.13917082 -0.18829246) to (15.820572 13.683501 18.186844) with tilt (-7.1855434 -1.036063 0.68944016)
if "${dir} == 4" then    "change_box all yz delta ${delta} remap units box"
if "${dir} == 5" then    "change_box all xz delta ${delta} remap units box"
if "${dir} == 6" then    "change_box all xy delta ${delta} remap units box"

# Relax atoms positions

minimize ${etol} ${ftol} ${maxiter} ${maxeval}
minimize 0 ${ftol} ${maxiter} ${maxeval}
minimize 0 1e-10 ${maxiter} ${maxeval}
minimize 0 1e-10 100000 ${maxeval}
minimize 0 1e-10 100000 100000
Generated 6 of 6 mixed pair_coeff terms from arithmetic mixing rule
Neighbor list info ...
  update: every = 1 steps, delay = 0 steps, check = yes
  max neighbors/atom: 2000, page size: 100000
  master list distance cutoff = 7
  ghost atom cutoff = 7
  binsize = 3.5, bins = 7 5 6
  1 neighbor lists, perpetual/occasional/extra = 1 0 0
  (1) pair lj/cut, perpetual
      attributes: half, newton on
      pair build: half/bin/newton/tri
      stencil: half/bin/3d/tri
      bin: standard
WARNING: Inconsistent image flags
For more information see https://docs.lammps.org/err0027 (src/domain.cpp:1052)
Per MPI rank memory allocation (min/avg/max) = 17.5 | 17.5 | 17.5 Mbytes
   Step          Temp          E_pair         E_mol          TotEng         Press     
    250430   274.88308     -448.71072      577.77814      415.02903     -21695.2      
    250466   274.88308     -457.87414      464.0522       292.13967     -7983.0359    
Loop time of 0.0284344 on 1 procs for 36 steps with 350 atoms

100.0% CPU use with 1 MPI tasks x 1 OpenMP threads

Minimization stats:
  Stopping criterion = linesearch alpha is zero
  Energy initial, next-to-last, final = 
       129.06741539228   6.17805748524148   6.17805748524148
  Force two-norm initial, final = 209.06467 18.043691
  Force max component initial, final = 26.041631 2.9836571
  Final line search alpha, max atom move = 2.7126272e-11 8.0935495e-11
  Iterations, force evaluations = 36 126

MPI task timing breakdown:
Section |  min time  |  avg time  |  max time  |%varavg| %total
---------------------------------------------------------------
Pair    | 0.021178   | 0.021178   | 0.021178   |   0.0 | 74.48
Bond    | 0.0059074  | 0.0059074  | 0.0059074  |   0.0 | 20.78
Neigh   | 0          | 0          | 0          |   0.0 |  0.00
Comm    | 0.00071642 | 0.00071642 | 0.00071642 |   0.0 |  2.52
Output  | 0          | 0          | 0          |   0.0 |  0.00
Modify  | 0          | 0          | 0          |   0.0 |  0.00
Other   |            | 0.000633   |            |       |  2.23

Nlocal:            350 ave         350 max         350 min
Histogram: 1 0 0 0 0 0 0 0 0 0
Nghost:           2132 ave        2132 max        2132 min
Histogram: 1 0 0 0 0 0 0 0 0 0
Neighs:          20411 ave       20411 max       20411 min
Histogram: 1 0 0 0 0 0 0 0 0 0

Total # of neighbors = 20411
Ave neighs/atom = 58.317143
Ave special neighs/atom = 6.1942857
Neighbor list builds = 0
Dangerous builds = 0

# Obtain new stress tensor

variable tmp equal pe
variable e1 equal ${tmp}
variable e1 equal 6.17805748524148
variable tmp equal press
variable p1 equal ${tmp}
variable p1 equal -7983.03588112678
variable tmp equal pxx
variable pxx1 equal ${tmp}
variable pxx1 equal -5784.81538330313
variable tmp equal pyy
variable pyy1 equal ${tmp}
variable pyy1 equal -7429.35642476176
variable tmp equal pzz
variable pzz1 equal ${tmp}
variable pzz1 equal -10734.9358353155
variable tmp equal pxy
variable pxy1 equal ${tmp}
variable pxy1 equal 3275.37097494561
variable tmp equal pxz
variable pxz1 equal ${tmp}
variable pxz1 equal -3295.76316706885
variable tmp equal pyz
variable pyz1 equal ${tmp}
variable pyz1 equal 827.627251964153

# Compute elastic constant from pressure tensor

variable C1pos equal ${d1}
variable C1pos equal 44.9452448091585
variable C2pos equal ${d2}
variable C2pos equal 52.3197120704803
variable C3pos equal ${d3}
variable C3pos equal 67.5191208460277
variable C4pos equal ${d4}
variable C4pos equal -4.83114931889456
variable C5pos equal ${d5}
variable C5pos equal -9.505263349031
variable C6pos equal ${d6}
variable C6pos equal 0.0354242424536983

# Combine positive and negative

variable C1${dir} equal 0.5*(${C1neg}+${C1pos})
variable C13 equal 0.5*(${C1neg}+${C1pos})
variable C13 equal 0.5*(-2.28563731660445+${C1pos})
variable C13 equal 0.5*(-2.28563731660445+44.9452448091585)
variable C2${dir} equal 0.5*(${C2neg}+${C2pos})
variable C23 equal 0.5*(${C2neg}+${C2pos})
variable C23 equal 0.5*(-11.9741135711447+${C2pos})
variable C23 equal 0.5*(-11.9741135711447+52.3197120704803)
variable C3${dir} equal 0.5*(${C3neg}+${C3pos})
variable C33 equal 0.5*(${C3neg}+${C3pos})
variable C33 equal 0.5*(45.4097978699778+${C3pos})
variable C33 equal 0.5*(45.4097978699778+67.5191208460277)
variable C4${dir} equal 0.5*(${C4neg}+${C4pos})
variable C43 equal 0.5*(${C4neg}+${C4pos})
variable C43 equal 0.5*(8.0544969948212+${C4pos})
variable C43 equal 0.5*(8.0544969948212+-4.83114931889456)
variable C5${dir} equal 0.5*(${C5neg}+${C5pos})
variable C53 equal 0.5*(${C5neg}+${C5pos})
variable C53 equal 0.5*(5.83225163383295+${C5pos})
variable C53 equal 0.5*(5.83225163383295+-9.505263349031)
variable C6${dir} equal 0.5*(${C6neg}+${C6pos})
variable C63 equal 0.5*(${C6neg}+${C6pos})
variable C63 equal 0.5*(8.00618587623815+${C6pos})
variable C63 equal 0.5*(8.00618587623815+0.0354242424536983)

# Delete dir to make sure it is not reused

variable dir delete

# uyz Perturbation

variable dir equal 4
include ./input/displace_333U-50C-5-vasp.mod
if "${dir} == 1" then    "variable len0 equal ${lx0}"
if "${dir} == 2" then    "variable len0 equal ${ly0}"
if "${dir} == 3" then    "variable len0 equal ${lz0}"
if "${dir} == 4" then    "variable len0 equal ${lz0}"
variable len0 equal ${lz0}
variable len0 equal 18.0148399249157
if "${dir} == 5" then    "variable len0 equal ${lz0}"
if "${dir} == 6" then    "variable len0 equal ${ly0}"

# Reset box and simulation parameters

clear
OMP_NUM_THREADS environment is not set. Defaulting to 1 thread.
  using 1 OpenMP thread(s) per MPI task
box tilt large

The 'box' command has been removed and will be ignored

read_restart restart_333U-50C-5-vasp.equil
Reading restart file ...
  restart file = 10 Sep 2025, LAMMPS = 10 Sep 2025
  restoring atom style full from restart
  triclinic box = (-0.14240753 -0.13917082 -0.18829246) to (15.820572 13.683501 17.826547) with tilt (-7.1855434 -1.036063 0.68944016)
WARNING: Triclinic box skew is large. LAMMPS will run inefficiently. (src/domain.cpp:221)
  1 by 1 by 1 MPI processor grid
  restoring pair style lj/cut from restart
  restoring bond style harmonic from restart
  restoring angle style hybrid from restart
  restoring dihedral style harmonic from restart
  350 atoms
  375 bonds
  709 angles
  879 dihedrals
Finding 1-2 1-3 1-4 neighbors ...
  special bond factors lj:    0        0        1       
  special bond factors coul:  0        0        1       
     4 = max # of 1-2 neighbors
     8 = max # of 1-3 neighbors
    12 = max # of special neighbors
  special bonds CPU = 0.000 seconds
  read_restart CPU = 0.001 seconds
include ./input/angles_333U-50C-5-vasp.mod
angle_style hybrid fourier cosine/periodic
angle_coeff 1 fourier 157.882480        0.343737        0.374972        0.281246
angle_coeff 2 fourier 221.735285        0.343737        0.374972        0.281246
angle_coeff 3 fourier 32.417871        0.343737        0.374972        0.281246
angle_coeff 4 fourier 83.380072        0.343737        0.374972        0.281246
angle_coeff 5 fourier 114.246973        0.343737        0.374972        0.281246
angle_coeff 6 fourier 58.020602        0.343737        0.374972        0.281246
angle_coeff 7 fourier 90.420412        0.343737        0.374972        0.281246
angle_coeff 8 fourier 75.498766        0.343737        0.374972        0.281246
angle_coeff 9 cosine/periodic 88.853997              -1               3

# Negative deformation

variable delta equal -${up}*${len0}
variable delta equal -0.02*${len0}
variable delta equal -0.02*18.0148399249157
variable deltaxy equal -${up}*xy
variable deltaxy equal -0.02*xy
variable deltaxz equal -${up}*xz
variable deltaxz equal -0.02*xz
variable deltayz equal -${up}*yz
variable deltayz equal -0.02*yz
if "${dir} == 1" then    "change_box all x delta 0 ${delta} xy delta ${deltaxy} xz delta ${deltaxz} remap units box"
if "${dir} == 2" then    "change_box all y delta 0 ${delta} yz delta ${deltayz} remap units box"
if "${dir} == 3" then    "change_box all z delta 0 ${delta} remap units box"
if "${dir} == 4" then    "change_box all yz delta ${delta} remap units box"
change_box all yz delta ${delta} remap units box
change_box all yz delta -0.360296798498314 remap units box
Changing box ...
WARNING: Triclinic box skew is large. LAMMPS will run inefficiently. (src/domain.cpp:221)
  triclinic box = (-0.14240753 -0.13917082 -0.18829246) to (15.820572 13.683501 17.826547) with tilt (-7.1855434 -1.036063 0.32914336)
if "${dir} == 5" then    "change_box all xz delta ${delta} remap units box"
if "${dir} == 6" then    "change_box all xy delta ${delta} remap units box"

# Relax atoms positions

minimize ${etol} ${ftol} ${maxiter} ${maxeval}
minimize 0 ${ftol} ${maxiter} ${maxeval}
minimize 0 1e-10 ${maxiter} ${maxeval}
minimize 0 1e-10 100000 ${maxeval}
minimize 0 1e-10 100000 100000
Generated 6 of 6 mixed pair_coeff terms from arithmetic mixing rule
Neighbor list info ...
  update: every = 1 steps, delay = 0 steps, check = yes
  max neighbors/atom: 2000, page size: 100000
  master list distance cutoff = 7
  ghost atom cutoff = 7
  binsize = 3.5, bins = 7 5 6
  1 neighbor lists, perpetual/occasional/extra = 1 0 0
  (1) pair lj/cut, perpetual
      attributes: half, newton on
      pair build: half/bin/newton/tri
      stencil: half/bin/3d/tri
      bin: standard
WARNING: Inconsistent image flags
For more information see https://docs.lammps.org/err0027 (src/domain.cpp:1052)
Per MPI rank memory allocation (min/avg/max) = 17.5 | 17.5 | 17.5 Mbytes
   Step          Temp          E_pair         E_mol          TotEng         Press     
    250430   274.88308     -430.6304       543.40305      398.73426      2550.763     
    250485   274.88308     -448.09504      447.43725      285.30382     -1581.1973    
Loop time of 0.11591 on 1 procs for 55 steps with 350 atoms

100.0% CPU use with 1 MPI tasks x 1 OpenMP threads

Minimization stats:
  Stopping criterion = linesearch alpha is zero
  Energy initial, next-to-last, final = 
      112.772647005419 -0.657792757337006 -0.657792757337006
  Force two-norm initial, final = 181.91405 4.6911425
  Force max component initial, final = 20.529574 0.56223834
  Final line search alpha, max atom move = 3.3129102e-10 1.8626451e-10
  Iterations, force evaluations = 55 511

MPI task timing breakdown:
Section |  min time  |  avg time  |  max time  |%varavg| %total
---------------------------------------------------------------
Pair    | 0.086866   | 0.086866   | 0.086866   |   0.0 | 74.94
Bond    | 0.024499   | 0.024499   | 0.024499   |   0.0 | 21.14
Neigh   | 0          | 0          | 0          |   0.0 |  0.00
Comm    | 0.0027114  | 0.0027114  | 0.0027114  |   0.0 |  2.34
Output  | 0          | 0          | 0          |   0.0 |  0.00
Modify  | 0          | 0          | 0          |   0.0 |  0.00
Other   |            | 0.001833   |            |       |  1.58

Nlocal:            350 ave         350 max         350 min
Histogram: 1 0 0 0 0 0 0 0 0 0
Nghost:           2140 ave        2140 max        2140 min
Histogram: 1 0 0 0 0 0 0 0 0 0
Neighs:          20863 ave       20863 max       20863 min
Histogram: 1 0 0 0 0 0 0 0 0 0

Total # of neighbors = 20863
Ave neighs/atom = 59.608571
Ave special neighs/atom = 6.1942857
Neighbor list builds = 0
Dangerous builds = 0

# Obtain new stress tensor

variable tmp equal pxx
variable pxx1 equal ${tmp}
variable pxx1 equal -2067.03614229908
variable tmp equal pyy
variable pyy1 equal ${tmp}
variable pyy1 equal -3279.61062127484
variable tmp equal pzz
variable pzz1 equal ${tmp}
variable pzz1 equal 603.054780446958
variable tmp equal pxy
variable pxy1 equal ${tmp}
variable pxy1 equal 4305.26090066181
variable tmp equal pxz
variable pxz1 equal ${tmp}
variable pxz1 equal -3521.60838640251
variable tmp equal pyz
variable pyz1 equal ${tmp}
variable pyz1 equal 5291.22192678624

# Compute elastic constant from pressure tensor

variable C1neg equal ${d1}
variable C1neg equal -26.3563486041383
variable C2neg equal ${d2}
variable C2neg equal -31.5709830530457
variable C3neg equal ${d3}
variable C3neg equal -10.8291677672154
variable C4neg equal ${d4}
variable C4neg equal 27.149122693005
variable C5neg equal ${d5}
variable C5neg equal 8.3760372523627
variable C6neg equal ${d6}
variable C6neg equal 5.1140253861273

# Reset box and simulation parameters

clear
OMP_NUM_THREADS environment is not set. Defaulting to 1 thread.
  using 1 OpenMP thread(s) per MPI task
box tilt large

The 'box' command has been removed and will be ignored

read_restart restart_333U-50C-5-vasp.equil
Reading restart file ...
  restart file = 10 Sep 2025, LAMMPS = 10 Sep 2025
  restoring atom style full from restart
  triclinic box = (-0.14240753 -0.13917082 -0.18829246) to (15.820572 13.683501 17.826547) with tilt (-7.1855434 -1.036063 0.68944016)
WARNING: Triclinic box skew is large. LAMMPS will run inefficiently. (src/domain.cpp:221)
  1 by 1 by 1 MPI processor grid
  restoring pair style lj/cut from restart
  restoring bond style harmonic from restart
  restoring angle style hybrid from restart
  restoring dihedral style harmonic from restart
  350 atoms
  375 bonds
  709 angles
  879 dihedrals
Finding 1-2 1-3 1-4 neighbors ...
  special bond factors lj:    0        0        1       
  special bond factors coul:  0        0        1       
     4 = max # of 1-2 neighbors
     8 = max # of 1-3 neighbors
    12 = max # of special neighbors
  special bonds CPU = 0.000 seconds
  read_restart CPU = 0.001 seconds
include ./input/angles_333U-50C-5-vasp.mod
angle_style hybrid fourier cosine/periodic
angle_coeff 1 fourier 157.882480        0.343737        0.374972        0.281246
angle_coeff 2 fourier 221.735285        0.343737        0.374972        0.281246
angle_coeff 3 fourier 32.417871        0.343737        0.374972        0.281246
angle_coeff 4 fourier 83.380072        0.343737        0.374972        0.281246
angle_coeff 5 fourier 114.246973        0.343737        0.374972        0.281246
angle_coeff 6 fourier 58.020602        0.343737        0.374972        0.281246
angle_coeff 7 fourier 90.420412        0.343737        0.374972        0.281246
angle_coeff 8 fourier 75.498766        0.343737        0.374972        0.281246
angle_coeff 9 cosine/periodic 88.853997              -1               3

# Positive deformation

variable delta equal ${up}*${len0}
variable delta equal 0.02*${len0}
variable delta equal 0.02*18.0148399249157
variable deltaxy equal ${up}*xy
variable deltaxy equal 0.02*xy
variable deltaxz equal ${up}*xz
variable deltaxz equal 0.02*xz
variable deltayz equal ${up}*yz
variable deltayz equal 0.02*yz
if "${dir} == 1" then    "change_box all x delta 0 ${delta} xy delta ${deltaxy} xz delta ${deltaxz} remap units box"
if "${dir} == 2" then    "change_box all y delta 0 ${delta} yz delta ${deltayz} remap units box"
if "${dir} == 3" then    "change_box all z delta 0 ${delta} remap units box"
if "${dir} == 4" then    "change_box all yz delta ${delta} remap units box"
change_box all yz delta ${delta} remap units box
change_box all yz delta 0.360296798498314 remap units box
Changing box ...
WARNING: Triclinic box skew is large. LAMMPS will run inefficiently. (src/domain.cpp:221)
  triclinic box = (-0.14240753 -0.13917082 -0.18829246) to (15.820572 13.683501 17.826547) with tilt (-7.1855434 -1.036063 1.049737)
if "${dir} == 5" then    "change_box all xz delta ${delta} remap units box"
if "${dir} == 6" then    "change_box all xy delta ${delta} remap units box"

# Relax atoms positions

minimize ${etol} ${ftol} ${maxiter} ${maxeval}
minimize 0 ${ftol} ${maxiter} ${maxeval}
minimize 0 1e-10 ${maxiter} ${maxeval}
minimize 0 1e-10 100000 ${maxeval}
minimize 0 1e-10 100000 100000
Generated 6 of 6 mixed pair_coeff terms from arithmetic mixing rule
Neighbor list info ...
  update: every = 1 steps, delay = 0 steps, check = yes
  max neighbors/atom: 2000, page size: 100000
  master list distance cutoff = 7
  ghost atom cutoff = 7
  binsize = 3.5, bins = 7 5 6
  1 neighbor lists, perpetual/occasional/extra = 1 0 0
  (1) pair lj/cut, perpetual
      attributes: half, newton on
      pair build: half/bin/newton/tri
      stencil: half/bin/3d/tri
      bin: standard
WARNING: Inconsistent image flags
For more information see https://docs.lammps.org/err0027 (src/domain.cpp:1052)
Per MPI rank memory allocation (min/avg/max) = 17.5 | 17.5 | 17.5 Mbytes
   Step          Temp          E_pair         E_mol          TotEng         Press     
    250430   274.88308     -434.19821      547.66735      399.43075      3083.0228    
    250481   274.88308     -449.35895      448.02769      284.63035     -1859.7502    
Loop time of 0.120766 on 1 procs for 51 steps with 350 atoms

100.0% CPU use with 1 MPI tasks x 1 OpenMP threads

Minimization stats:
  Stopping criterion = linesearch alpha is zero
  Energy initial, next-to-last, final = 
      113.469135330082  -1.33126010976082  -1.33126010976082
  Force two-norm initial, final = 181.1582 9.2458672
  Force max component initial, final = 20.762636 1.0670126
  Final line search alpha, max atom move = 8.7283187e-11 9.3132257e-11
  Iterations, force evaluations = 51 552

MPI task timing breakdown:
Section |  min time  |  avg time  |  max time  |%varavg| %total
---------------------------------------------------------------
Pair    | 0.090813   | 0.090813   | 0.090813   |   0.0 | 75.20
Bond    | 0.025289   | 0.025289   | 0.025289   |   0.0 | 20.94
Neigh   | 0          | 0          | 0          |   0.0 |  0.00
Comm    | 0.0029216  | 0.0029216  | 0.0029216  |   0.0 |  2.42
Output  | 0          | 0          | 0          |   0.0 |  0.00
Modify  | 0          | 0          | 0          |   0.0 |  0.00
Other   |            | 0.001743   |            |       |  1.44

Nlocal:            350 ave         350 max         350 min
Histogram: 1 0 0 0 0 0 0 0 0 0
Nghost:           2140 ave        2140 max        2140 min
Histogram: 1 0 0 0 0 0 0 0 0 0
Neighs:          20876 ave       20876 max       20876 min
Histogram: 1 0 0 0 0 0 0 0 0 0

Total # of neighbors = 20876
Ave neighs/atom = 59.645714
Ave special neighs/atom = 6.1942857
Neighbor list builds = 0
Dangerous builds = 0

# Obtain new stress tensor

variable tmp equal pe
variable e1 equal ${tmp}
variable e1 equal -1.33126010976082
variable tmp equal press
variable p1 equal ${tmp}
variable p1 equal -1859.75019479138
variable tmp equal pxx
variable pxx1 equal ${tmp}
variable pxx1 equal -1548.51888633466
variable tmp equal pyy
variable pyy1 equal ${tmp}
variable pyy1 equal -3770.58168267449
variable tmp equal pzz
variable pzz1 equal ${tmp}
variable pzz1 equal -260.150015364997
variable tmp equal pxy
variable pxy1 equal ${tmp}
variable pxy1 equal 3837.90378156175
variable tmp equal pxz
variable pxz1 equal ${tmp}
variable pxz1 equal -3745.18148684466
variable tmp equal pyz
variable pyz1 equal ${tmp}
variable pyz1 equal -2922.4304040544

# Compute elastic constant from pressure tensor

variable C1pos equal ${d1}
variable C1pos equal 23.7637623243162
variable C2pos equal ${d2}
variable C2pos equal 34.0258383600439
variable C3pos equal ${d3}
variable C3pos equal 15.1451917462752
variable C4pos equal ${d4}
variable C4pos equal 13.9191389611982
variable C5pos equal ${d5}
variable C5pos equal -7.25817175015195
variable C6pos equal ${d6}
variable C6pos equal -2.777239790627

# Combine positive and negative

variable C1${dir} equal 0.5*(${C1neg}+${C1pos})
variable C14 equal 0.5*(${C1neg}+${C1pos})
variable C14 equal 0.5*(-26.3563486041383+${C1pos})
variable C14 equal 0.5*(-26.3563486041383+23.7637623243162)
variable C2${dir} equal 0.5*(${C2neg}+${C2pos})
variable C24 equal 0.5*(${C2neg}+${C2pos})
variable C24 equal 0.5*(-31.5709830530457+${C2pos})
variable C24 equal 0.5*(-31.5709830530457+34.0258383600439)
variable C3${dir} equal 0.5*(${C3neg}+${C3pos})
variable C34 equal 0.5*(${C3neg}+${C3pos})
variable C34 equal 0.5*(-10.8291677672154+${C3pos})
variable C34 equal 0.5*(-10.8291677672154+15.1451917462752)
variable C4${dir} equal 0.5*(${C4neg}+${C4pos})
variable C44 equal 0.5*(${C4neg}+${C4pos})
variable C44 equal 0.5*(27.149122693005+${C4pos})
variable C44 equal 0.5*(27.149122693005+13.9191389611982)
variable C5${dir} equal 0.5*(${C5neg}+${C5pos})
variable C54 equal 0.5*(${C5neg}+${C5pos})
variable C54 equal 0.5*(8.3760372523627+${C5pos})
variable C54 equal 0.5*(8.3760372523627+-7.25817175015195)
variable C6${dir} equal 0.5*(${C6neg}+${C6pos})
variable C64 equal 0.5*(${C6neg}+${C6pos})
variable C64 equal 0.5*(5.1140253861273+${C6pos})
variable C64 equal 0.5*(5.1140253861273+-2.777239790627)

# Delete dir to make sure it is not reused

variable dir delete

# uxz Perturbation

variable dir equal 5
include ./input/displace_333U-50C-5-vasp.mod
if "${dir} == 1" then    "variable len0 equal ${lx0}"
if "${dir} == 2" then    "variable len0 equal ${ly0}"
if "${dir} == 3" then    "variable len0 equal ${lz0}"
if "${dir} == 4" then    "variable len0 equal ${lz0}"
if "${dir} == 5" then    "variable len0 equal ${lz0}"
variable len0 equal ${lz0}
variable len0 equal 18.0148399249157
if "${dir} == 6" then    "variable len0 equal ${ly0}"

# Reset box and simulation parameters

clear
OMP_NUM_THREADS environment is not set. Defaulting to 1 thread.
  using 1 OpenMP thread(s) per MPI task
box tilt large

The 'box' command has been removed and will be ignored

read_restart restart_333U-50C-5-vasp.equil
Reading restart file ...
  restart file = 10 Sep 2025, LAMMPS = 10 Sep 2025
  restoring atom style full from restart
  triclinic box = (-0.14240753 -0.13917082 -0.18829246) to (15.820572 13.683501 17.826547) with tilt (-7.1855434 -1.036063 0.68944016)
WARNING: Triclinic box skew is large. LAMMPS will run inefficiently. (src/domain.cpp:221)
  1 by 1 by 1 MPI processor grid
  restoring pair style lj/cut from restart
  restoring bond style harmonic from restart
  restoring angle style hybrid from restart
  restoring dihedral style harmonic from restart
  350 atoms
  375 bonds
  709 angles
  879 dihedrals
Finding 1-2 1-3 1-4 neighbors ...
  special bond factors lj:    0        0        1       
  special bond factors coul:  0        0        1       
     4 = max # of 1-2 neighbors
     8 = max # of 1-3 neighbors
    12 = max # of special neighbors
  special bonds CPU = 0.000 seconds
  read_restart CPU = 0.001 seconds
include ./input/angles_333U-50C-5-vasp.mod
angle_style hybrid fourier cosine/periodic
angle_coeff 1 fourier 157.882480        0.343737        0.374972        0.281246
angle_coeff 2 fourier 221.735285        0.343737        0.374972        0.281246
angle_coeff 3 fourier 32.417871        0.343737        0.374972        0.281246
angle_coeff 4 fourier 83.380072        0.343737        0.374972        0.281246
angle_coeff 5 fourier 114.246973        0.343737        0.374972        0.281246
angle_coeff 6 fourier 58.020602        0.343737        0.374972        0.281246
angle_coeff 7 fourier 90.420412        0.343737        0.374972        0.281246
angle_coeff 8 fourier 75.498766        0.343737        0.374972        0.281246
angle_coeff 9 cosine/periodic 88.853997              -1               3

# Negative deformation

variable delta equal -${up}*${len0}
variable delta equal -0.02*${len0}
variable delta equal -0.02*18.0148399249157
variable deltaxy equal -${up}*xy
variable deltaxy equal -0.02*xy
variable deltaxz equal -${up}*xz
variable deltaxz equal -0.02*xz
variable deltayz equal -${up}*yz
variable deltayz equal -0.02*yz
if "${dir} == 1" then    "change_box all x delta 0 ${delta} xy delta ${deltaxy} xz delta ${deltaxz} remap units box"
if "${dir} == 2" then    "change_box all y delta 0 ${delta} yz delta ${deltayz} remap units box"
if "${dir} == 3" then    "change_box all z delta 0 ${delta} remap units box"
if "${dir} == 4" then    "change_box all yz delta ${delta} remap units box"
if "${dir} == 5" then    "change_box all xz delta ${delta} remap units box"
change_box all xz delta ${delta} remap units box
change_box all xz delta -0.360296798498314 remap units box
Changing box ...
WARNING: Triclinic box skew is large. LAMMPS will run inefficiently. (src/domain.cpp:221)
  triclinic box = (-0.14240753 -0.13917082 -0.18829246) to (15.820572 13.683501 17.826547) with tilt (-7.1855434 -1.3963598 0.68944016)
if "${dir} == 6" then    "change_box all xy delta ${delta} remap units box"

# Relax atoms positions

minimize ${etol} ${ftol} ${maxiter} ${maxeval}
minimize 0 ${ftol} ${maxiter} ${maxeval}
minimize 0 1e-10 ${maxiter} ${maxeval}
minimize 0 1e-10 100000 ${maxeval}
minimize 0 1e-10 100000 100000
Generated 6 of 6 mixed pair_coeff terms from arithmetic mixing rule
Neighbor list info ...
  update: every = 1 steps, delay = 0 steps, check = yes
  max neighbors/atom: 2000, page size: 100000
  master list distance cutoff = 7
  ghost atom cutoff = 7
  binsize = 3.5, bins = 8 5 6
  1 neighbor lists, perpetual/occasional/extra = 1 0 0
  (1) pair lj/cut, perpetual
      attributes: half, newton on
      pair build: half/bin/newton/tri
      stencil: half/bin/3d/tri
      bin: standard
WARNING: Inconsistent image flags
For more information see https://docs.lammps.org/err0027 (src/domain.cpp:1052)
Per MPI rank memory allocation (min/avg/max) = 17.51 | 17.51 | 17.51 Mbytes
   Step          Temp          E_pair         E_mol          TotEng         Press     
    250430   274.88308     -431.92147      539.06854      393.10868      2782.8842    
    250468   274.88308     -449.43753      444.29343      280.81751     -1850.4349    
Loop time of 0.0249821 on 1 procs for 38 steps with 350 atoms

100.0% CPU use with 1 MPI tasks x 1 OpenMP threads

Minimization stats:
  Stopping criterion = linesearch alpha is zero
  Energy initial, next-to-last, final = 
      107.147063738633  -5.14410108832487  -5.14410108832487
  Force two-norm initial, final = 177.59442 16.176984
  Force max component initial, final = 16.861702 3.0596373
  Final line search alpha, max atom move = 2.4506938e-11 7.4982342e-11
  Iterations, force evaluations = 38 147

MPI task timing breakdown:
Section |  min time  |  avg time  |  max time  |%varavg| %total
---------------------------------------------------------------
Pair    | 0.01869    | 0.01869    | 0.01869    |   0.0 | 74.82
Bond    | 0.0051756  | 0.0051756  | 0.0051756  |   0.0 | 20.72
Neigh   | 0          | 0          | 0          |   0.0 |  0.00
Comm    | 0.00063096 | 0.00063096 | 0.00063096 |   0.0 |  2.53
Output  | 0          | 0          | 0          |   0.0 |  0.00
Modify  | 0          | 0          | 0          |   0.0 |  0.00
Other   |            | 0.0004852  |            |       |  1.94

Nlocal:            350 ave         350 max         350 min
Histogram: 1 0 0 0 0 0 0 0 0 0
Nghost:           2142 ave        2142 max        2142 min
Histogram: 1 0 0 0 0 0 0 0 0 0
Neighs:          20846 ave       20846 max       20846 min
Histogram: 1 0 0 0 0 0 0 0 0 0

Total # of neighbors = 20846
Ave neighs/atom = 59.56
Ave special neighs/atom = 6.1942857
Neighbor list builds = 0
Dangerous builds = 0

# Obtain new stress tensor

variable tmp equal pxx
variable pxx1 equal ${tmp}
variable pxx1 equal -1067.73389059664
variable tmp equal pyy
variable pyy1 equal ${tmp}
variable pyy1 equal -3988.39550219005
variable tmp equal pzz
variable pzz1 equal ${tmp}
variable pzz1 equal -495.175262700339
variable tmp equal pxy
variable pxy1 equal ${tmp}
variable pxy1 equal 4138.07577342382
variable tmp equal pxz
variable pxz1 equal ${tmp}
variable pxz1 equal -159.905766492548
variable tmp equal pyz
variable pyz1 equal ${tmp}
variable pyz1 equal 1421.01700237309

# Compute elastic constant from pressure tensor

variable C1neg equal ${d1}
variable C1neg equal -21.3598373456261
variable C2neg equal ${d2}
variable C2neg equal -35.1149074576217
variable C3neg equal ${d3}
variable C3neg equal -16.3203179829519
variable C4neg equal ${d4}
variable C4neg equal 7.79809807093925
variable C5neg equal ${d5}
variable C5neg equal 25.1845503519125
variable C6neg equal ${d6}
variable C6neg equal 4.27809974993735

# Reset box and simulation parameters

clear
OMP_NUM_THREADS environment is not set. Defaulting to 1 thread.
  using 1 OpenMP thread(s) per MPI task
box tilt large

The 'box' command has been removed and will be ignored

read_restart restart_333U-50C-5-vasp.equil
Reading restart file ...
  restart file = 10 Sep 2025, LAMMPS = 10 Sep 2025
  restoring atom style full from restart
  triclinic box = (-0.14240753 -0.13917082 -0.18829246) to (15.820572 13.683501 17.826547) with tilt (-7.1855434 -1.036063 0.68944016)
WARNING: Triclinic box skew is large. LAMMPS will run inefficiently. (src/domain.cpp:221)
  1 by 1 by 1 MPI processor grid
  restoring pair style lj/cut from restart
  restoring bond style harmonic from restart
  restoring angle style hybrid from restart
  restoring dihedral style harmonic from restart
  350 atoms
  375 bonds
  709 angles
  879 dihedrals
Finding 1-2 1-3 1-4 neighbors ...
  special bond factors lj:    0        0        1       
  special bond factors coul:  0        0        1       
     4 = max # of 1-2 neighbors
     8 = max # of 1-3 neighbors
    12 = max # of special neighbors
  special bonds CPU = 0.000 seconds
  read_restart CPU = 0.001 seconds
include ./input/angles_333U-50C-5-vasp.mod
angle_style hybrid fourier cosine/periodic
angle_coeff 1 fourier 157.882480        0.343737        0.374972        0.281246
angle_coeff 2 fourier 221.735285        0.343737        0.374972        0.281246
angle_coeff 3 fourier 32.417871        0.343737        0.374972        0.281246
angle_coeff 4 fourier 83.380072        0.343737        0.374972        0.281246
angle_coeff 5 fourier 114.246973        0.343737        0.374972        0.281246
angle_coeff 6 fourier 58.020602        0.343737        0.374972        0.281246
angle_coeff 7 fourier 90.420412        0.343737        0.374972        0.281246
angle_coeff 8 fourier 75.498766        0.343737        0.374972        0.281246
angle_coeff 9 cosine/periodic 88.853997              -1               3

# Positive deformation

variable delta equal ${up}*${len0}
variable delta equal 0.02*${len0}
variable delta equal 0.02*18.0148399249157
variable deltaxy equal ${up}*xy
variable deltaxy equal 0.02*xy
variable deltaxz equal ${up}*xz
variable deltaxz equal 0.02*xz
variable deltayz equal ${up}*yz
variable deltayz equal 0.02*yz
if "${dir} == 1" then    "change_box all x delta 0 ${delta} xy delta ${deltaxy} xz delta ${deltaxz} remap units box"
if "${dir} == 2" then    "change_box all y delta 0 ${delta} yz delta ${deltayz} remap units box"
if "${dir} == 3" then    "change_box all z delta 0 ${delta} remap units box"
if "${dir} == 4" then    "change_box all yz delta ${delta} remap units box"
if "${dir} == 5" then    "change_box all xz delta ${delta} remap units box"
change_box all xz delta ${delta} remap units box
change_box all xz delta 0.360296798498314 remap units box
Changing box ...
WARNING: Triclinic box skew is large. LAMMPS will run inefficiently. (src/domain.cpp:221)
  triclinic box = (-0.14240753 -0.13917082 -0.18829246) to (15.820572 13.683501 17.826547) with tilt (-7.1855434 -0.67576622 0.68944016)
if "${dir} == 6" then    "change_box all xy delta ${delta} remap units box"

# Relax atoms positions

minimize ${etol} ${ftol} ${maxiter} ${maxeval}
minimize 0 ${ftol} ${maxiter} ${maxeval}
minimize 0 1e-10 ${maxiter} ${maxeval}
minimize 0 1e-10 100000 ${maxeval}
minimize 0 1e-10 100000 100000
Generated 6 of 6 mixed pair_coeff terms from arithmetic mixing rule
Neighbor list info ...
  update: every = 1 steps, delay = 0 steps, check = yes
  max neighbors/atom: 2000, page size: 100000
  master list distance cutoff = 7
  ghost atom cutoff = 7
  binsize = 3.5, bins = 7 5 6
  1 neighbor lists, perpetual/occasional/extra = 1 0 0
  (1) pair lj/cut, perpetual
      attributes: half, newton on
      pair build: half/bin/newton/tri
      stencil: half/bin/3d/tri
      bin: standard
WARNING: Inconsistent image flags
For more information see https://docs.lammps.org/err0027 (src/domain.cpp:1052)
Per MPI rank memory allocation (min/avg/max) = 17.5 | 17.5 | 17.5 Mbytes
   Step          Temp          E_pair         E_mol          TotEng         Press     
    250430   274.88308     -432.15264      550.82579      404.63476      2876.4017    
    250469   274.88308     -446.81219      450.18479      289.33421     -1748.6121    
Loop time of 0.0235524 on 1 procs for 39 steps with 350 atoms

100.0% CPU use with 1 MPI tasks x 1 OpenMP threads

Minimization stats:
  Stopping criterion = linesearch alpha is zero
  Energy initial, next-to-last, final = 
      118.673150591264   3.37259763973941   3.37259763973941
  Force two-norm initial, final = 176.20229 14.891383
  Force max component initial, final = 17.932822 2.4334765
  Final line search alpha, max atom move = 3.1444493e-11 7.6519437e-11
  Iterations, force evaluations = 39 136

MPI task timing breakdown:
Section |  min time  |  avg time  |  max time  |%varavg| %total
---------------------------------------------------------------
Pair    | 0.017726   | 0.017726   | 0.017726   |   0.0 | 75.26
Bond    | 0.0048181  | 0.0048181  | 0.0048181  |   0.0 | 20.46
Neigh   | 0          | 0          | 0          |   0.0 |  0.00
Comm    | 0.00056006 | 0.00056006 | 0.00056006 |   0.0 |  2.38
Output  | 0          | 0          | 0          |   0.0 |  0.00
Modify  | 0          | 0          | 0          |   0.0 |  0.00
Other   |            | 0.0004483  |            |       |  1.90

Nlocal:            350 ave         350 max         350 min
Histogram: 1 0 0 0 0 0 0 0 0 0
Nghost:           2136 ave        2136 max        2136 min
Histogram: 1 0 0 0 0 0 0 0 0 0
Neighs:          20840 ave       20840 max       20840 min
Histogram: 1 0 0 0 0 0 0 0 0 0

Total # of neighbors = 20840
Ave neighs/atom = 59.542857
Ave special neighs/atom = 6.1942857
Neighbor list builds = 0
Dangerous builds = 0

# Obtain new stress tensor

variable tmp equal pe
variable e1 equal ${tmp}
variable e1 equal 3.37259763973941
variable tmp equal press
variable p1 equal ${tmp}
variable p1 equal -1748.61214362912
variable tmp equal pxx
variable pxx1 equal ${tmp}
variable pxx1 equal -2683.20035485938
variable tmp equal pyy
variable pyy1 equal ${tmp}
variable pyy1 equal -2972.81819900552
variable tmp equal pzz
variable pzz1 equal ${tmp}
variable pzz1 equal 410.182122977539
variable tmp equal pxy
variable pxy1 equal ${tmp}
variable pxy1 equal 3993.05590411433
variable tmp equal pxz
variable pxz1 equal ${tmp}
variable pxz1 equal -7005.42400065047
variable tmp equal pyz
variable pyz1 equal ${tmp}
variable pyz1 equal 1105.26017649738

# Compute elastic constant from pressure tensor

variable C1pos equal ${d1}
variable C1pos equal 29.4371696669398
variable C2pos equal ${d2}
variable C2pos equal 30.0370209416991
variable C3pos equal ${d3}
variable C3pos equal 11.7935310545625
variable C4pos equal ${d4}
variable C4pos equal -6.2193139415607
variable C5pos equal ${d5}
variable C5pos equal 9.0430408188771
variable C6pos equal ${d6}
variable C6pos equal -3.5530004033899

# Combine positive and negative

variable C1${dir} equal 0.5*(${C1neg}+${C1pos})
variable C15 equal 0.5*(${C1neg}+${C1pos})
variable C15 equal 0.5*(-21.3598373456261+${C1pos})
variable C15 equal 0.5*(-21.3598373456261+29.4371696669398)
variable C2${dir} equal 0.5*(${C2neg}+${C2pos})
variable C25 equal 0.5*(${C2neg}+${C2pos})
variable C25 equal 0.5*(-35.1149074576217+${C2pos})
variable C25 equal 0.5*(-35.1149074576217+30.0370209416991)
variable C3${dir} equal 0.5*(${C3neg}+${C3pos})
variable C35 equal 0.5*(${C3neg}+${C3pos})
variable C35 equal 0.5*(-16.3203179829519+${C3pos})
variable C35 equal 0.5*(-16.3203179829519+11.7935310545625)
variable C4${dir} equal 0.5*(${C4neg}+${C4pos})
variable C45 equal 0.5*(${C4neg}+${C4pos})
variable C45 equal 0.5*(7.79809807093925+${C4pos})
variable C45 equal 0.5*(7.79809807093925+-6.2193139415607)
variable C5${dir} equal 0.5*(${C5neg}+${C5pos})
variable C55 equal 0.5*(${C5neg}+${C5pos})
variable C55 equal 0.5*(25.1845503519125+${C5pos})
variable C55 equal 0.5*(25.1845503519125+9.0430408188771)
variable C6${dir} equal 0.5*(${C6neg}+${C6pos})
variable C65 equal 0.5*(${C6neg}+${C6pos})
variable C65 equal 0.5*(4.27809974993735+${C6pos})
variable C65 equal 0.5*(4.27809974993735+-3.5530004033899)

# Delete dir to make sure it is not reused

variable dir delete

# uxy Perturbation

variable dir equal 6
include ./input/displace_333U-50C-5-vasp.mod
if "${dir} == 1" then    "variable len0 equal ${lx0}"
if "${dir} == 2" then    "variable len0 equal ${ly0}"
if "${dir} == 3" then    "variable len0 equal ${lz0}"
if "${dir} == 4" then    "variable len0 equal ${lz0}"
if "${dir} == 5" then    "variable len0 equal ${lz0}"
if "${dir} == 6" then    "variable len0 equal ${ly0}"
variable len0 equal ${ly0}
variable len0 equal 13.8226716444906

# Reset box and simulation parameters

clear
OMP_NUM_THREADS environment is not set. Defaulting to 1 thread.
  using 1 OpenMP thread(s) per MPI task
box tilt large

The 'box' command has been removed and will be ignored

read_restart restart_333U-50C-5-vasp.equil
Reading restart file ...
  restart file = 10 Sep 2025, LAMMPS = 10 Sep 2025
  restoring atom style full from restart
  triclinic box = (-0.14240753 -0.13917082 -0.18829246) to (15.820572 13.683501 17.826547) with tilt (-7.1855434 -1.036063 0.68944016)
WARNING: Triclinic box skew is large. LAMMPS will run inefficiently. (src/domain.cpp:221)
  1 by 1 by 1 MPI processor grid
  restoring pair style lj/cut from restart
  restoring bond style harmonic from restart
  restoring angle style hybrid from restart
  restoring dihedral style harmonic from restart
  350 atoms
  375 bonds
  709 angles
  879 dihedrals
Finding 1-2 1-3 1-4 neighbors ...
  special bond factors lj:    0        0        1       
  special bond factors coul:  0        0        1       
     4 = max # of 1-2 neighbors
     8 = max # of 1-3 neighbors
    12 = max # of special neighbors
  special bonds CPU = 0.000 seconds
  read_restart CPU = 0.001 seconds
include ./input/angles_333U-50C-5-vasp.mod
angle_style hybrid fourier cosine/periodic
angle_coeff 1 fourier 157.882480        0.343737        0.374972        0.281246
angle_coeff 2 fourier 221.735285        0.343737        0.374972        0.281246
angle_coeff 3 fourier 32.417871        0.343737        0.374972        0.281246
angle_coeff 4 fourier 83.380072        0.343737        0.374972        0.281246
angle_coeff 5 fourier 114.246973        0.343737        0.374972        0.281246
angle_coeff 6 fourier 58.020602        0.343737        0.374972        0.281246
angle_coeff 7 fourier 90.420412        0.343737        0.374972        0.281246
angle_coeff 8 fourier 75.498766        0.343737        0.374972        0.281246
angle_coeff 9 cosine/periodic 88.853997              -1               3

# Negative deformation

variable delta equal -${up}*${len0}
variable delta equal -0.02*${len0}
variable delta equal -0.02*13.8226716444906
variable deltaxy equal -${up}*xy
variable deltaxy equal -0.02*xy
variable deltaxz equal -${up}*xz
variable deltaxz equal -0.02*xz
variable deltayz equal -${up}*yz
variable deltayz equal -0.02*yz
if "${dir} == 1" then    "change_box all x delta 0 ${delta} xy delta ${deltaxy} xz delta ${deltaxz} remap units box"
if "${dir} == 2" then    "change_box all y delta 0 ${delta} yz delta ${deltayz} remap units box"
if "${dir} == 3" then    "change_box all z delta 0 ${delta} remap units box"
if "${dir} == 4" then    "change_box all yz delta ${delta} remap units box"
if "${dir} == 5" then    "change_box all xz delta ${delta} remap units box"
if "${dir} == 6" then    "change_box all xy delta ${delta} remap units box"
change_box all xy delta ${delta} remap units box
change_box all xy delta -0.276453432889812 remap units box
Changing box ...
WARNING: Triclinic box skew is large. LAMMPS will run inefficiently. (src/domain.cpp:221)
  triclinic box = (-0.14240753 -0.13917082 -0.18829246) to (15.820572 13.683501 17.826547) with tilt (-7.4619969 -1.036063 0.68944016)

# Relax atoms positions

minimize ${etol} ${ftol} ${maxiter} ${maxeval}
minimize 0 ${ftol} ${maxiter} ${maxeval}
minimize 0 1e-10 ${maxiter} ${maxeval}
minimize 0 1e-10 100000 ${maxeval}
minimize 0 1e-10 100000 100000
Generated 6 of 6 mixed pair_coeff terms from arithmetic mixing rule
Neighbor list info ...
  update: every = 1 steps, delay = 0 steps, check = yes
  max neighbors/atom: 2000, page size: 100000
  master list distance cutoff = 7
  ghost atom cutoff = 7
  binsize = 3.5, bins = 7 5 6
  1 neighbor lists, perpetual/occasional/extra = 1 0 0
  (1) pair lj/cut, perpetual
      attributes: half, newton on
      pair build: half/bin/newton/tri
      stencil: half/bin/3d/tri
      bin: standard
WARNING: Inconsistent image flags
For more information see https://docs.lammps.org/err0027 (src/domain.cpp:1052)
Per MPI rank memory allocation (min/avg/max) = 17.5 | 17.5 | 17.5 Mbytes
   Step          Temp          E_pair         E_mol          TotEng         Press     
    250430   274.88308     -430.44033      546.94817      402.46945      3134.9772    
    250469   274.88308     -447.22212      451.72904      290.46853     -1544.0143    
Loop time of 0.0222307 on 1 procs for 39 steps with 350 atoms

100.0% CPU use with 1 MPI tasks x 1 OpenMP threads

Minimization stats:
  Stopping criterion = linesearch alpha is zero
  Energy initial, next-to-last, final = 
      116.507842335872   4.50691860074397   4.50691860074397
  Force two-norm initial, final = 174.57559 13.799702
  Force max component initial, final = 22.851515 1.9574257
  Final line search alpha, max atom move = 6.0528701e-11 1.1848044e-10
  Iterations, force evaluations = 39 130

MPI task timing breakdown:
Section |  min time  |  avg time  |  max time  |%varavg| %total
---------------------------------------------------------------
Pair    | 0.016766   | 0.016766   | 0.016766   |   0.0 | 75.42
Bond    | 0.0044928  | 0.0044928  | 0.0044928  |   0.0 | 20.21
Neigh   | 0          | 0          | 0          |   0.0 |  0.00
Comm    | 0.00051836 | 0.00051836 | 0.00051836 |   0.0 |  2.33
Output  | 0          | 0          | 0          |   0.0 |  0.00
Modify  | 0          | 0          | 0          |   0.0 |  0.00
Other   |            | 0.0004531  |            |       |  2.04

Nlocal:            350 ave         350 max         350 min
Histogram: 1 0 0 0 0 0 0 0 0 0
Nghost:           2144 ave        2144 max        2144 min
Histogram: 1 0 0 0 0 0 0 0 0 0
Neighs:          20872 ave       20872 max       20872 min
Histogram: 1 0 0 0 0 0 0 0 0 0

Total # of neighbors = 20872
Ave neighs/atom = 59.634286
Ave special neighs/atom = 6.1942857
Neighbor list builds = 0
Dangerous builds = 0

# Obtain new stress tensor

variable tmp equal pxx
variable pxx1 equal ${tmp}
variable pxx1 equal -1584.09320231732
variable tmp equal pyy
variable pyy1 equal ${tmp}
variable pyy1 equal -3882.56828060336
variable tmp equal pzz
variable pzz1 equal ${tmp}
variable pzz1 equal 834.618473394859
variable tmp equal pxy
variable pxy1 equal ${tmp}
variable pxy1 equal 8174.40147333588
variable tmp equal pxz
variable pxz1 equal ${tmp}
variable pxz1 equal -3663.67725793287
variable tmp equal pyz
variable pyz1 equal ${tmp}
variable pyz1 equal 1457.10260946977

# Compute elastic constant from pressure tensor

variable C1neg equal ${d1}
variable C1neg equal -23.9416339042294
variable C2neg equal ${d2}
variable C2neg equal -34.5857713496883
variable C3neg equal ${d3}
variable C3neg equal -9.6713493024759
variable C4neg equal ${d4}
variable C4neg equal 7.97852610642265
variable C5neg equal ${d5}
variable C5neg equal 7.6656928947109
variable C6neg equal ${d6}
variable C6neg equal 24.4597282494976

# Reset box and simulation parameters

clear
OMP_NUM_THREADS environment is not set. Defaulting to 1 thread.
  using 1 OpenMP thread(s) per MPI task
box tilt large

The 'box' command has been removed and will be ignored

read_restart restart_333U-50C-5-vasp.equil
Reading restart file ...
  restart file = 10 Sep 2025, LAMMPS = 10 Sep 2025
  restoring atom style full from restart
  triclinic box = (-0.14240753 -0.13917082 -0.18829246) to (15.820572 13.683501 17.826547) with tilt (-7.1855434 -1.036063 0.68944016)
WARNING: Triclinic box skew is large. LAMMPS will run inefficiently. (src/domain.cpp:221)
  1 by 1 by 1 MPI processor grid
  restoring pair style lj/cut from restart
  restoring bond style harmonic from restart
  restoring angle style hybrid from restart
  restoring dihedral style harmonic from restart
  350 atoms
  375 bonds
  709 angles
  879 dihedrals
Finding 1-2 1-3 1-4 neighbors ...
  special bond factors lj:    0        0        1       
  special bond factors coul:  0        0        1       
     4 = max # of 1-2 neighbors
     8 = max # of 1-3 neighbors
    12 = max # of special neighbors
  special bonds CPU = 0.000 seconds
  read_restart CPU = 0.001 seconds
include ./input/angles_333U-50C-5-vasp.mod
angle_style hybrid fourier cosine/periodic
angle_coeff 1 fourier 157.882480        0.343737        0.374972        0.281246
angle_coeff 2 fourier 221.735285        0.343737        0.374972        0.281246
angle_coeff 3 fourier 32.417871        0.343737        0.374972        0.281246
angle_coeff 4 fourier 83.380072        0.343737        0.374972        0.281246
angle_coeff 5 fourier 114.246973        0.343737        0.374972        0.281246
angle_coeff 6 fourier 58.020602        0.343737        0.374972        0.281246
angle_coeff 7 fourier 90.420412        0.343737        0.374972        0.281246
angle_coeff 8 fourier 75.498766        0.343737        0.374972        0.281246
angle_coeff 9 cosine/periodic 88.853997              -1               3

# Positive deformation

variable delta equal ${up}*${len0}
variable delta equal 0.02*${len0}
variable delta equal 0.02*13.8226716444906
variable deltaxy equal ${up}*xy
variable deltaxy equal 0.02*xy
variable deltaxz equal ${up}*xz
variable deltaxz equal 0.02*xz
variable deltayz equal ${up}*yz
variable deltayz equal 0.02*yz
if "${dir} == 1" then    "change_box all x delta 0 ${delta} xy delta ${deltaxy} xz delta ${deltaxz} remap units box"
if "${dir} == 2" then    "change_box all y delta 0 ${delta} yz delta ${deltayz} remap units box"
if "${dir} == 3" then    "change_box all z delta 0 ${delta} remap units box"
if "${dir} == 4" then    "change_box all yz delta ${delta} remap units box"
if "${dir} == 5" then    "change_box all xz delta ${delta} remap units box"
if "${dir} == 6" then    "change_box all xy delta ${delta} remap units box"
change_box all xy delta ${delta} remap units box
change_box all xy delta 0.276453432889812 remap units box
Changing box ...
  triclinic box = (-0.14240753 -0.13917082 -0.18829246) to (15.820572 13.683501 17.826547) with tilt (-6.90909 -1.036063 0.68944016)

# Relax atoms positions

minimize ${etol} ${ftol} ${maxiter} ${maxeval}
minimize 0 ${ftol} ${maxiter} ${maxeval}
minimize 0 1e-10 ${maxiter} ${maxeval}
minimize 0 1e-10 100000 ${maxeval}
minimize 0 1e-10 100000 100000
Generated 6 of 6 mixed pair_coeff terms from arithmetic mixing rule
Neighbor list info ...
  update: every = 1 steps, delay = 0 steps, check = yes
  max neighbors/atom: 2000, page size: 100000
  master list distance cutoff = 7
  ghost atom cutoff = 7
  binsize = 3.5, bins = 7 5 6
  1 neighbor lists, perpetual/occasional/extra = 1 0 0
  (1) pair lj/cut, perpetual
      attributes: half, newton on
      pair build: half/bin/newton/tri
      stencil: half/bin/3d/tri
      bin: standard
WARNING: Inconsistent image flags
For more information see https://docs.lammps.org/err0027 (src/domain.cpp:1052)
Per MPI rank memory allocation (min/avg/max) = 17.5 | 17.5 | 17.5 Mbytes
   Step          Temp          E_pair         E_mol          TotEng         Press     
    250430   274.88308     -434.41745      542.03509      393.57926      2496.7484    
    250470   274.88308     -449.41722      443.34331      279.88771     -1948.9735    
Loop time of 0.0249155 on 1 procs for 40 steps with 350 atoms

100.0% CPU use with 1 MPI tasks x 1 OpenMP threads

Minimization stats:
  Stopping criterion = linesearch alpha is zero
  Energy initial, next-to-last, final = 
      107.617644120339  -6.07390650559961  -6.07390650559961
  Force two-norm initial, final = 175.46042 13.392902
  Force max component initial, final = 20.113521 1.7519652
  Final line search alpha, max atom move = 3.5410804e-11 6.2038495e-11
  Iterations, force evaluations = 40 143

MPI task timing breakdown:
Section |  min time  |  avg time  |  max time  |%varavg| %total
---------------------------------------------------------------
Pair    | 0.01884    | 0.01884    | 0.01884    |   0.0 | 75.62
Bond    | 0.0050658  | 0.0050658  | 0.0050658  |   0.0 | 20.33
Neigh   | 0          | 0          | 0          |   0.0 |  0.00
Comm    | 0.00056725 | 0.00056725 | 0.00056725 |   0.0 |  2.28
Output  | 0          | 0          | 0          |   0.0 |  0.00
Modify  | 0          | 0          | 0          |   0.0 |  0.00
Other   |            | 0.0004424  |            |       |  1.78

Nlocal:            350 ave         350 max         350 min
Histogram: 1 0 0 0 0 0 0 0 0 0
Nghost:           2128 ave        2128 max        2128 min
Histogram: 1 0 0 0 0 0 0 0 0 0
Neighs:          20869 ave       20869 max       20869 min
Histogram: 1 0 0 0 0 0 0 0 0 0

Total # of neighbors = 20869
Ave neighs/atom = 59.625714
Ave special neighs/atom = 6.1942857
Neighbor list builds = 0
Dangerous builds = 0

# Obtain new stress tensor

variable tmp equal pe
variable e1 equal ${tmp}
variable e1 equal -6.07390650559961
variable tmp equal press
variable p1 equal ${tmp}
variable p1 equal -1948.97352486427
variable tmp equal pxx
variable pxx1 equal ${tmp}
variable pxx1 equal -2335.58909510377
variable tmp equal pyy
variable pyy1 equal ${tmp}
variable pyy1 equal -2903.76055638025
variable tmp equal pzz
variable pzz1 equal ${tmp}
variable pzz1 equal -607.570923108775
variable tmp equal pxy
variable pxy1 equal ${tmp}
variable pxy1 equal -150.04850523437
variable tmp equal pxz
variable pxz1 equal ${tmp}
variable pxz1 equal -3483.66522322202
variable tmp equal pyz
variable pyz1 equal ${tmp}
variable pyz1 equal 1106.77228463723

# Compute elastic constant from pressure tensor

variable C1pos equal ${d1}
variable C1pos equal 27.6991133681617
variable C2pos equal ${d2}
variable C2pos equal 29.6917327285727
variable C3pos equal ${d3}
variable C3pos equal 16.8822962849941
variable C4pos equal ${d4}
variable C4pos equal -6.22687448225995
variable C5pos equal ${d5}
variable C5pos equal -8.56575306826515
variable C6pos equal ${d6}
variable C6pos equal 17.1625216433536

# Combine positive and negative

variable C1${dir} equal 0.5*(${C1neg}+${C1pos})
variable C16 equal 0.5*(${C1neg}+${C1pos})
variable C16 equal 0.5*(-23.9416339042294+${C1pos})
variable C16 equal 0.5*(-23.9416339042294+27.6991133681617)
variable C2${dir} equal 0.5*(${C2neg}+${C2pos})
variable C26 equal 0.5*(${C2neg}+${C2pos})
variable C26 equal 0.5*(-34.5857713496883+${C2pos})
variable C26 equal 0.5*(-34.5857713496883+29.6917327285727)
variable C3${dir} equal 0.5*(${C3neg}+${C3pos})
variable C36 equal 0.5*(${C3neg}+${C3pos})
variable C36 equal 0.5*(-9.6713493024759+${C3pos})
variable C36 equal 0.5*(-9.6713493024759+16.8822962849941)
variable C4${dir} equal 0.5*(${C4neg}+${C4pos})
variable C46 equal 0.5*(${C4neg}+${C4pos})
variable C46 equal 0.5*(7.97852610642265+${C4pos})
variable C46 equal 0.5*(7.97852610642265+-6.22687448225995)
variable C5${dir} equal 0.5*(${C5neg}+${C5pos})
variable C56 equal 0.5*(${C5neg}+${C5pos})
variable C56 equal 0.5*(7.6656928947109+${C5pos})
variable C56 equal 0.5*(7.6656928947109+-8.56575306826515)
variable C6${dir} equal 0.5*(${C6neg}+${C6pos})
variable C66 equal 0.5*(${C6neg}+${C6pos})
variable C66 equal 0.5*(24.4597282494976+${C6pos})
variable C66 equal 0.5*(24.4597282494976+17.1625216433536)

# Delete dir to make sure it is not reused

variable dir delete

# Output final values

variable C11all equal ${C11}
variable C11all equal 56.5661599735438
variable C22all equal ${C22}
variable C22all equal 60.036736233774
variable C33all equal ${C33}
variable C33all equal 56.4644593580028

variable C12all equal 0.5*(${C12}+${C21})
variable C12all equal 0.5*(23.8848285823806+${C21})
variable C12all equal 0.5*(23.8848285823806+22.3962357838084)
variable C13all equal 0.5*(${C13}+${C31})
variable C13all equal 0.5*(21.329803746277+${C31})
variable C13all equal 0.5*(21.329803746277+22.6176985861929)
variable C23all equal 0.5*(${C23}+${C32})
variable C23all equal 0.5*(20.1727992496678+${C32})
variable C23all equal 0.5*(20.1727992496678+21.8119038391271)

variable C44all equal ${C44}
variable C44all equal 20.5341308271016
variable C55all equal ${C55}
variable C55all equal 17.1137955853948
variable C66all equal ${C66}
variable C66all equal 20.8111249464256

variable C14all equal 0.5*(${C14}+${C41})
variable C14all equal 0.5*(-1.29629313991105+${C41})
variable C14all equal 0.5*(-1.29629313991105+-1.46943074262023)
variable C15all equal 0.5*(${C15}+${C51})
variable C15all equal 0.5*(4.03866616065685+${C51})
variable C15all equal 0.5*(4.03866616065685+2.85937513074765)
variable C16all equal 0.5*(${C16}+${C61})
variable C16all equal 0.5*(1.87873973196615+${C61})
variable C16all equal 0.5*(1.87873973196615+1.9162735090848)

variable C24all equal 0.5*(${C24}+${C42})
variable C24all equal 0.5*(1.2274276534991+${C42})
variable C24all equal 0.5*(1.2274276534991+1.6464396336355)
variable C25all equal 0.5*(${C25}+${C52})
variable C25all equal 0.5*(-2.5389432579613+${C52})
variable C25all equal 0.5*(-2.5389432579613+-4.4511440911908)
variable C26all equal 0.5*(${C26}+${C62})
variable C26all equal 0.5*(-2.4470193105578+${C62})
variable C26all equal 0.5*(-2.4470193105578+-1.02186448079308)

variable C34all equal 0.5*(${C34}+${C43})
variable C34all equal 0.5*(2.1580119895299+${C43})
variable C34all equal 0.5*(2.1580119895299+1.61167383796332)
variable C35all equal 0.5*(${C35}+${C53})
variable C35all equal 0.5*(-2.2633934641947+${C53})
variable C35all equal 0.5*(-2.2633934641947+-1.83650585759903)
variable C36all equal 0.5*(${C36}+${C63})
variable C36all equal 0.5*(3.6054734912591+${C63})
variable C36all equal 0.5*(3.6054734912591+4.02080505934592)

variable C45all equal 0.5*(${C45}+${C54})
variable C45all equal 0.5*(0.789392064689275+${C54})
variable C45all equal 0.5*(0.789392064689275+0.558932751105375)
variable C46all equal 0.5*(${C46}+${C64})
variable C46all equal 0.5*(0.87582581208135+${C64})
variable C46all equal 0.5*(0.87582581208135+1.16839279775015)
variable C56all equal 0.5*(${C56}+${C65})
variable C56all equal 0.5*(-0.450030086777125+${C65})
variable C56all equal 0.5*(-0.450030086777125+0.362549673273725)

# Average moduli for cubic crystals

variable C11cubic equal (${C11all}+${C22all}+${C33all})/3.0
variable C11cubic equal (56.5661599735438+${C22all}+${C33all})/3.0
variable C11cubic equal (56.5661599735438+60.036736233774+${C33all})/3.0
variable C11cubic equal (56.5661599735438+60.036736233774+56.4644593580028)/3.0
variable C12cubic equal (${C12all}+${C13all}+${C23all})/3.0
variable C12cubic equal (23.1405321830945+${C13all}+${C23all})/3.0
variable C12cubic equal (23.1405321830945+21.973751166235+${C23all})/3.0
variable C12cubic equal (23.1405321830945+21.973751166235+20.9923515443975)/3.0
variable C44cubic equal (${C44all}+${C55all}+${C66all})/3.0
variable C44cubic equal (20.5341308271016+${C55all}+${C66all})/3.0
variable C44cubic equal (20.5341308271016+17.1137955853948+${C66all})/3.0
variable C44cubic equal (20.5341308271016+17.1137955853948+20.8111249464256)/3.0

variable bulkmodulus equal (${C11cubic}+2*${C12cubic})/3.0
variable bulkmodulus equal (57.6891185217735+2*${C12cubic})/3.0
variable bulkmodulus equal (57.6891185217735+2*22.0355449645757)/3.0
variable shearmodulus1 equal ${C44cubic}
variable shearmodulus1 equal 19.486350452974
variable shearmodulus2 equal (${C11cubic}-${C12cubic})/2.0
variable shearmodulus2 equal (57.6891185217735-${C12cubic})/2.0
variable shearmodulus2 equal (57.6891185217735-22.0355449645757)/2.0
variable poissonratio equal 1.0/(1.0+${C11cubic}/${C12cubic})
variable poissonratio equal 1.0/(1.0+57.6891185217735/${C12cubic})
variable poissonratio equal 1.0/(1.0+57.6891185217735/22.0355449645757)

print "Elastic Constant 1 1 = ${C11all}"
Elastic Constant 1 1 = 56.5661599735438
print "Elastic Constant 2 2 = ${C22all}"
Elastic Constant 2 2 = 60.036736233774
print "Elastic Constant 3 3 = ${C33all}"
Elastic Constant 3 3 = 56.4644593580028

print "Elastic Constant 1 2 = ${C12all}"
Elastic Constant 1 2 = 23.1405321830945
print "Elastic Constant 1 3 = ${C13all}"
Elastic Constant 1 3 = 21.973751166235
print "Elastic Constant 2 3 = ${C23all}"
Elastic Constant 2 3 = 20.9923515443975

print "Elastic Constant 4 4 = ${C44all}"
Elastic Constant 4 4 = 20.5341308271016
print "Elastic Constant 5 5 = ${C55all}"
Elastic Constant 5 5 = 17.1137955853948
print "Elastic Constant 6 6 = ${C66all}"
Elastic Constant 6 6 = 20.8111249464256

print "Elastic Constant 1 4 = ${C14all}"
Elastic Constant 1 4 = -1.38286194126564
print "Elastic Constant 1 5 = ${C15all}"
Elastic Constant 1 5 = 3.44902064570225
print "Elastic Constant 1 6 = ${C16all}"
Elastic Constant 1 6 = 1.89750662052547

print "Elastic Constant 2 4 = ${C24all}"
Elastic Constant 2 4 = 1.4369336435673
print "Elastic Constant 2 5 = ${C25all}"
Elastic Constant 2 5 = -3.49504367457605
print "Elastic Constant 2 6 = ${C26all}"
Elastic Constant 2 6 = -1.73444189567544

print "Elastic Constant 3 4 = ${C34all}"
Elastic Constant 3 4 = 1.88484291374661
print "Elastic Constant 3 5 = ${C35all}"
Elastic Constant 3 5 = -2.04994966089687
print "Elastic Constant 3 6 = ${C36all}"
Elastic Constant 3 6 = 3.81313927530251

print "Elastic Constant 4 5 = ${C45all}"
Elastic Constant 4 5 = 0.674162407897325
print "Elastic Constant 4 6 = ${C46all}"
Elastic Constant 4 6 = 1.02210930491575
print "Elastic Constant 5 6 = ${C56all}"
Elastic Constant 5 6 = -0.0437402067517

print "Bulk Modulus = ${bulkmodulus} ${cunits}"
Bulk Modulus = 33.9200694836416 GPa
print "Shear Modulus 1 = ${shearmodulus1} ${cunits}"
Shear Modulus 1 = 19.486350452974 GPa
print "Shear Modulus 2 = ${shearmodulus2} ${cunits}"
Shear Modulus 2 = 17.8267867785989 GPa
print "Poisson Ratio = ${poissonratio}"
Poisson Ratio = 0.276395584515057

variable rho equal density
print "density (g/cm^3) = ${rho}"
density (g/cm^3) = 1.63389930449498
Total wall time: 0:00:59
