units           real
atom_style      full
boundary        p p p

pair_style      lj/cut 5.000
bond_style      harmonic
angle_style     hybrid fourier cosine/periodic
dihedral_style  harmonic

pair_modify     tail yes mix arithmetic
special_bonds   lj/coul 0.0 0.0 1.0
dielectric      1.0
box tilt        large

The 'box' command has been removed and will be ignored

read_data       ./dat/data.333SiO2-1-UFF
Reading data file ...
  triclinic box = (0 0 0) to (14.6913 12.723039 15.9631) with tilt (-7.34565 0 0)
WARNING: Triclinic box skew is large. LAMMPS will run inefficiently. (src/domain.cpp:221)
  1 by 1 by 1 MPI processor grid
  reading atoms ...
  243 atoms
  scanning bonds ...
  4 = max bonds/atom
  scanning angles ...
  6 = max angles/atom
  scanning dihedrals ...
  12 = max dihedrals/atom
  triclinic box = (0 0 0) to (14.6913 12.723039 15.9631) with tilt (-7.34565 0 0)
WARNING: Triclinic box skew is large. LAMMPS will run inefficiently. (src/domain.cpp:221)
  1 by 1 by 1 MPI processor grid
  reading bonds ...
  324 bonds
  reading angles ...
  648 angles
  reading dihedrals ...
  972 dihedrals
Finding 1-2 1-3 1-4 neighbors ...
  special bond factors lj:    0        0        1       
  special bond factors coul:  0        0        1       
     4 = max # of 1-2 neighbors
     6 = max # of 1-3 neighbors
     8 = max # of special neighbors
  special bonds CPU = 0.000 seconds
  read_data CPU = 0.009 seconds

#### Atom Groupings ####
group           fram     id   1:243
243 atoms in group fram
#### END Atom Groupings ####

compute am all property/atom mass
dump        atom_pos all extxyz 100 ./output/333SiO2-1-UFF.lammpstrj
dump_modify atom_pos element Si O mass yes
thermo          1000
thermo_style    custom step temp pe ke etotal press vol density

variable up equal 2e-2
variable cfac equal 1.0e-4
variable cunits string GPa

# Define minimization parameters
variable etol equal 0.0
variable ftol equal 1.0e-10
variable maxiter equal 100000
variable maxeval equal 100000
variable dmax equal 1.0e-2

variable temp equal 300.0
variable thermal_damp index 100.0
variable pressure_damp index 500.0

fix relax all box/relax aniso 0.0 vmax 0.001
unfix relax
minimize ${etol} ${ftol} ${maxiter} ${maxeval}
minimize 0 ${ftol} ${maxiter} ${maxeval}
minimize 0 1e-10 ${maxiter} ${maxeval}
minimize 0 1e-10 100000 ${maxeval}
minimize 0 1e-10 100000 100000
Generated 1 of 1 mixed pair_coeff terms from arithmetic mixing rule
Neighbor list info ...
  update: every = 1 steps, delay = 0 steps, check = yes
  max neighbors/atom: 2000, page size: 100000
  master list distance cutoff = 7
  ghost atom cutoff = 7
  binsize = 3.5, bins = 7 4 5
  1 neighbor lists, perpetual/occasional/extra = 1 0 0
  (1) pair lj/cut, perpetual
      attributes: half, newton on
      pair build: half/bin/newton/tri
      stencil: half/bin/3d/tri
      bin: standard
WARNING: Inconsistent image flags
For more information see https://docs.lammps.org/err0027 (src/domain.cpp:1052)
Per MPI rank memory allocation (min/avg/max) = 13.49 | 13.49 | 13.49 Mbytes
   Step          Temp          PotEng         KinEng         TotEng         Press          Volume        Density    
         0   0              3352.9534      0              3352.9534      288301.81      2983.7905      2.7084871    
       136   0              135.19015      0              135.19015     -22241.676      2983.7905      2.7084871    
Loop time of 0.038145 on 1 procs for 136 steps with 243 atoms

99.9% CPU use with 1 MPI tasks x 1 OpenMP threads

Minimization stats:
  Stopping criterion = force tolerance
  Energy initial, next-to-last, final = 
      3352.95341790204   135.190153070182   135.190153070182
  Force two-norm initial, final = 1461.2321 8.7963231e-11
  Force max component initial, final = 99.095905 1.1965165e-11
  Final line search alpha, max atom move = 1 1.1965165e-11
  Iterations, force evaluations = 136 281

MPI task timing breakdown:
Section |  min time  |  avg time  |  max time  |%varavg| %total
---------------------------------------------------------------
Pair    | 0.023747   | 0.023747   | 0.023747   |   0.0 | 62.25
Bond    | 0.011727   | 0.011727   | 0.011727   |   0.0 | 30.74
Neigh   | 0          | 0          | 0          |   0.0 |  0.00
Comm    | 0.0011434  | 0.0011434  | 0.0011434  |   0.0 |  3.00
Output  | 0.00034733 | 0.00034733 | 0.00034733 |   0.0 |  0.91
Modify  | 0          | 0          | 0          |   0.0 |  0.00
Other   |            | 0.00118    |            |       |  3.09

Nlocal:            243 ave         243 max         243 min
Histogram: 1 0 0 0 0 0 0 0 0 0
Nghost:           1839 ave        1839 max        1839 min
Histogram: 1 0 0 0 0 0 0 0 0 0
Neighs:          12555 ave       12555 max       12555 min
Histogram: 1 0 0 0 0 0 0 0 0 0

Total # of neighbors = 12555
Ave neighs/atom = 51.666667
Ave special neighs/atom = 8
Neighbor list builds = 0
Dangerous builds = 0

# Generating the full routine as described in the paper for UFF
fix nvt_relax   all nvt temp 300 300 ${thermal_damp}
fix nvt_relax   all nvt temp 300 300 100.0
run 100000      # 100 picoseconds
Generated 1 of 1 mixed pair_coeff terms from arithmetic mixing rule
WARNING: Inconsistent image flags
For more information see https://docs.lammps.org/err0027 (src/domain.cpp:1052)
Per MPI rank memory allocation (min/avg/max) = 13.41 | 13.41 | 13.41 Mbytes
   Step          Temp          PotEng         KinEng         TotEng         Press          Volume        Density    
       136   0              135.19015      0              135.19015     -22241.676      2983.7905      2.7084871    
      1000   4.6987139e-22  135.19015      3.3894456e-22  135.19015     -22241.676      2983.7905      2.7084871    
      2000   3.3408664e-20  135.19015      2.4099541e-20  135.19015     -22241.676      2983.7905      2.7084871    
      3000   8.8919631e-18  135.19015      6.4142712e-18  135.19015     -22241.676      2983.7905      2.7084871    
      4000   8.6409915e-15  135.19015      6.2332313e-15  135.19015     -22241.676      2983.7905      2.7084871    
      5000   7.2173247e-10  135.19015      5.2062607e-10  135.19015     -22241.676      2983.7905      2.7084871    
      6000   0.00015827036  135.19015      0.00011416928  135.19027     -22241.671      2983.7905      2.7084871    
      7000   48.426148      135.19015      34.932494      170.12265     -21706.576      2983.7905      2.7084871    
      8000   250.86723      135.19015      180.96459      316.15474     -19469.439      2983.7905      2.7084871    
      9000   344.19161      135.19015      248.2847       383.47485     -18437.864      2983.7905      2.7084871    
     10000   328.56375      135.19015      237.01144      372.20159     -18610.846      2983.7905      2.7084871    
     11000   269.74706      135.19015      194.58367      329.77382     -19260.732      2983.7905      2.7084871    
     12000   276.93254      135.19015      199.76696      334.95711     -19181.155      2983.7905      2.7084871    
     13000   325.11777      135.19015      234.52566      369.71582     -18648.897      2983.7905      2.7084871    
     14000   319.18301      135.19015      230.24459      365.43474     -18714.246      2983.7905      2.7084871    
     15000   278.56529      135.19015      200.94475      336.1349      -19163.091      2983.7905      2.7084871    
     16000   282.80279      135.19015      204.0015       339.19165     -19116.47       2983.7905      2.7084871    
     17000   319.48076      135.19015      230.45938      365.64953     -18710.841      2983.7905      2.7084871    
     18000   315.24779      135.19015      227.4059       362.59605     -18757.721      2983.7905      2.7084871    
     19000   282.37435      135.19015      203.69244      338.8826      -19121.118      2983.7905      2.7084871    
     20000   285.85302      135.19015      206.2018       341.39195     -19082.385      2983.7905      2.7084871    
     21000   316.61264      135.19015      228.39044      363.58059     -18742.66       2983.7905      2.7084871    
     22000   312.83894      135.19015      225.66826      360.85841     -18784.354      2983.7905      2.7084871    
     23000   284.5252       135.19015      205.24397      340.43412     -19097.058      2983.7905      2.7084871    
     24000   287.96594      135.19015      207.72597      342.91612     -19059.323      2983.7905      2.7084871    
     25000   315.10336      135.19015      227.30171      362.49186     -18759.301      2983.7905      2.7084871    
     26000   309.54506      135.19015      223.2922       358.48235     -18820.658      2983.7905      2.7084871    
     27000   283.64902      135.19015      204.61193      339.80208     -19107.147      2983.7905      2.7084871    
     28000   296.87786      135.19015      214.15464      349.34479     -18960.756      2983.7905      2.7084871    
     29000   310.04207      135.19015      223.65072      358.84087     -18815.35       2983.7905      2.7084871    
     30000   306.72463      135.19015      221.25766      356.44781     -18852.234      2983.7905      2.7084871    
     31000   299.70642      135.19015      216.19503      351.38519     -18929.521      2983.7905      2.7084871    
     32000   295.11573      135.19015      212.88351      348.07367     -18980.404      2983.7905      2.7084871    
     33000   253.2687       135.19015      182.69691      317.88706     -19442.91       2983.7905      2.7084871    
     34000   300.7968       135.19015      216.98159      352.17174     -18917.379      2983.7905      2.7084871    
     35000   303.22365      135.19015      218.73221      353.92236     -18890.777      2983.7905      2.7084871    
     36000   307.33578      135.19015      221.69852      356.88867     -18845.243      2983.7905      2.7084871    
     37000   286.91298      135.19015      206.96641      342.15656     -19070.744      2983.7905      2.7084871    
     38000   295.32626      135.19015      213.03538      348.22554     -18978.023      2983.7905      2.7084871    
     39000   308.07434      135.19015      222.23128      357.42143     -18836.937      2983.7905      2.7084871    
     40000   302.64283      135.19015      218.31323      353.50339     -18896.899      2983.7905      2.7084871    
     41000   297.61387      135.19015      214.68556      349.87571     -18952.717      2983.7905      2.7084871    
     42000   294.20196      135.19015      212.22436      347.41451     -18990.164      2983.7905      2.7084871    
     43000   339.83713      135.19015      245.14356      380.33371     -18485.924      2983.7905      2.7084871    
     44000   302.62657      135.19015      218.3015       353.49166     -18897.315      2983.7905      2.7084871    
     45000   300.28827      135.19015      216.61475      351.80491     -18922.885      2983.7905      2.7084871    
     46000   269.46317      135.19015      194.37888      329.56904     -19263.757      2983.7905      2.7084871    
     47000   298.19249      135.19015      215.10295      350.2931      -18946.305      2983.7905      2.7084871    
     48000   317.51677      135.19015      229.04264      364.23279     -18732.542      2983.7905      2.7084871    
     49000   294.15606      135.19015      212.19125      347.3814      -18991.02       2983.7905      2.7084871    
     50000   290.90897      135.19015      209.84894      345.0391      -19026.834      2983.7905      2.7084871    
     51000   323.04146      135.19015      233.02791      368.21806     -18671.628      2983.7905      2.7084871    
     52000   314.53447      135.19015      226.89134      362.08149     -18765.936      2983.7905      2.7084871    
     53000   298.04869      135.19015      214.99922      350.18937     -18947.901      2983.7905      2.7084871    
     54000   290.82122      135.19015      209.78564      344.97579     -19027.758      2983.7905      2.7084871    
     55000   282.62205      135.19015      203.87112      339.06127     -19118.557      2983.7905      2.7084871    
     56000   311.10031      135.19015      224.41408      359.60424     -18803.528      2983.7905      2.7084871    
     57000   308.17718      135.19015      222.30546      357.49562     -18835.93       2983.7905      2.7084871    
     58000   299.45732      135.19015      216.01534      351.2055      -18932.365      2983.7905      2.7084871    
     59000   284.24744      135.19015      205.04361      340.23376     -19100.152      2983.7905      2.7084871    
     60000   308.18772      135.19015      222.31307      357.50323     -18835.784      2983.7905      2.7084871    
     61000   300.3899       135.19015      216.68806      351.87822     -18921.919      2983.7905      2.7084871    
     62000   286.92286      135.19015      206.97354      342.16369     -19070.553      2983.7905      2.7084871    
     63000   319.50618      135.19015      230.47771      365.66786     -18710.755      2983.7905      2.7084871    
     64000   302.15094      135.19015      217.9584       353.14856     -18902.414      2983.7905      2.7084871    
     65000   282.66639      135.19015      203.9031       339.09326     -19117.679      2983.7905      2.7084871    
     66000   314.17574      135.19015      226.63257      361.82272     -18769.731      2983.7905      2.7084871    
     67000   311.56301      135.19015      224.74786      359.93801     -18798.367      2983.7905      2.7084871    
     68000   329.39096      135.19015      237.60816      372.79831     -18601.415      2983.7905      2.7084871    
     69000   307.05849      135.19015      221.4985       356.68865     -18848.425      2983.7905      2.7084871    
     70000   288.57221      135.19015      208.1633       343.35346     -19052.47       2983.7905      2.7084871    
     71000   287.11277      135.19015      207.11053      342.30068     -19068.803      2983.7905      2.7084871    
     72000   312.49665      135.19015      225.42134      360.61149     -18788.362      2983.7905      2.7084871    
     73000   314.90462      135.19015      227.15835      362.3485      -18761.513      2983.7905      2.7084871    
     74000   283.93469      135.19015      204.818        340.00816     -19104.033      2983.7905      2.7084871    
     75000   287.80089      135.19015      207.6069       342.79706     -19061.226      2983.7905      2.7084871    
     76000   283.01714      135.19015      204.15612      339.34627     -19113.922      2983.7905      2.7084871    
     77000   326.01552      135.19015      235.17326      370.36341     -18638.993      2983.7905      2.7084871    
     78000   315.63431      135.19015      227.68471      362.87486     -18753.481      2983.7905      2.7084871    
     79000   294.35108      135.19015      212.33193      347.52208     -18988.612      2983.7905      2.7084871    
     80000   270.24839      135.19015      194.94531      330.13546     -19255.167      2983.7905      2.7084871    
     81000   311.32165      135.19015      224.57375      359.76391     -18800.948      2983.7905      2.7084871    
     82000   299.92532      135.19015      216.35294      351.54309     -18926.977      2983.7905      2.7084871    
     83000   292.69138      135.19015      211.13469      346.32485     -19007.058      2983.7905      2.7084871    
     84000   295.31577      135.19015      213.02781      348.21797     -18977.791      2983.7905      2.7084871    
     85000   302.20849      135.19015      217.99991      353.19007     -18901.851      2983.7905      2.7084871    
     86000   310.96091      135.19015      224.31353      359.50368     -18805.154      2983.7905      2.7084871    
     87000   270.69028      135.19015      195.26407      330.45422     -19250.003      2983.7905      2.7084871    
     88000   286.91126      135.19015      206.96517      342.15532     -19071.031      2983.7905      2.7084871    
     89000   295.5521       135.19015      213.19829      348.38844     -18975.436      2983.7905      2.7084871    
     90000   316.17971      135.19015      228.07814      363.2683      -18747.383      2983.7905      2.7084871    
     91000   307.6363       135.19015      221.9153       357.10545     -18842.095      2983.7905      2.7084871    
     92000   280.58905      135.19015      202.40461      337.59476     -19140.788      2983.7905      2.7084871    
     93000   294.25206      135.19015      212.2605       347.45065     -18989.824      2983.7905      2.7084871    
     94000   311.7154       135.19015      224.85779      360.04794     -18797.044      2983.7905      2.7084871    
     95000   269.00143      135.19015      194.0458       329.23596     -19268.814      2983.7905      2.7084871    
     96000   306.46858      135.19015      221.07296      356.26311     -18854.905      2983.7905      2.7084871    
     97000   302.55156      135.19015      218.2474       353.43755     -18898.279      2983.7905      2.7084871    
     98000   283.48794      135.19015      204.49574      339.68589     -19108.679      2983.7905      2.7084871    
     99000   313.25467      135.19015      225.96814      361.1583      -18779.932      2983.7905      2.7084871    
    100000   269.64457      135.19015      194.50974      329.69989     -19261.791      2983.7905      2.7084871    
    100136   284.41515      135.19015      205.16459      340.35474     -19098.679      2983.7905      2.7084871    
Loop time of 12.6591 on 1 procs for 100000 steps with 243 atoms

Performance: 682.510 ns/day, 0.035 hours/ns, 7899.426 timesteps/s, 1.920 Matom-step/s
99.9% CPU use with 1 MPI tasks x 1 OpenMP threads

MPI task timing breakdown:
Section |  min time  |  avg time  |  max time  |%varavg| %total
---------------------------------------------------------------
Pair    | 7.0488     | 7.0488     | 7.0488     |   0.0 | 55.68
Bond    | 3.6997     | 3.6997     | 3.6997     |   0.0 | 29.23
Neigh   | 0.81142    | 0.81142    | 0.81142    |   0.0 |  6.41
Comm    | 0.40173    | 0.40173    | 0.40173    |   0.0 |  3.17
Output  | 0.35392    | 0.35392    | 0.35392    |   0.0 |  2.80
Modify  | 0.24594    | 0.24594    | 0.24594    |   0.0 |  1.94
Other   |            | 0.09763    |            |       |  0.77

Nlocal:            243 ave         243 max         243 min
Histogram: 1 0 0 0 0 0 0 0 0 0
Nghost:           1737 ave        1737 max        1737 min
Histogram: 1 0 0 0 0 0 0 0 0 0
Neighs:          12312 ave       12312 max       12312 min
Histogram: 1 0 0 0 0 0 0 0 0 0

Total # of neighbors = 12312
Ave neighs/atom = 50.666667
Ave special neighs/atom = 8
Neighbor list builds = 566
Dangerous builds = 0
unfix           nvt_relax

fix npt_relax   all npt temp 300 300 ${thermal_damp} iso 0 0 ${pressure_damp}
fix npt_relax   all npt temp 300 300 100.0 iso 0 0 ${pressure_damp}
fix npt_relax   all npt temp 300 300 100.0 iso 0 0 500.0
run 100000      # 100 picoseconds
Generated 1 of 1 mixed pair_coeff terms from arithmetic mixing rule
WARNING: Inconsistent image flags
For more information see https://docs.lammps.org/err0027 (src/domain.cpp:1052)
Per MPI rank memory allocation (min/avg/max) = 13.43 | 13.43 | 13.43 Mbytes
   Step          Temp          PotEng         KinEng         TotEng         Press          Volume        Density    
    100136   284.41515      135.19015      205.16459      340.35474     -19098.679      2983.7905      2.7084871    
    101000   278.92188      133.22144      201.20198      334.42342     -61.007518      2932.6358      2.7557318    
    102000   291.25762      123.8859       210.10044      333.98634      6672.8784      2922.315       2.7654643    
    103000   312.19242      132.33303      225.20189      357.53491      474.35642      2937.4414      2.7512235    
    104000   307.54653      132.21535      221.85055      354.06589      3674.1268      2934.5102      2.7539716    
    105000   320.95059      131.76984      231.51965      363.28949      385.65265      2941.9051      2.7470491    
    106000   320.31648      131.8407       231.06222      362.90292      1968.5339      2941.3111      2.7476039    
    107000   302.03032      131.71493      217.87139      349.58633     -1103.9903      2948.7015      2.7407175    
    108000   282.86066      132.36621      204.04324      336.40945     -7518.8905      2963.3515      2.7271681    
    109000   305.94481      133.76068      220.69513      354.45581      3160.161       2939.5156      2.7492822    
    110000   313.92987      132.98841      226.45521      359.44362     -2189.83        2937.252       2.7514009    
    111000   282.98796      133.47648      204.13507      337.61155      4088.9305      2925.8698      2.7621044    
    112000   293.24208      132.49764      211.53195      344.02959     -1586.8796      2936.3173      2.7522767    
    113000   316.3888       132.27537      228.22897      360.50434      833.62664      2934.6385      2.7538512    
    114000   304.43335      131.97601      219.60483      351.58084     -173.31586      2937.4376      2.7512271    
    115000   257.47022      131.45753      185.7277       317.18523     -3499.0305      2947.3233      2.7419991    
    116000   302.6975       132.39649      218.35266      350.74916     -1231.6101      2950.4549      2.7390887    
    117000   315.11865      131.6144       227.31274      358.92714     -3885.5118      2953.1937      2.7365485    
    118000   299.24578      132.10894      215.86275      347.97168      2769.8974      2939.7973      2.7490187    
    119000   293.1777       131.73288      211.4855       343.21838     -947.78918      2944.3558      2.7447626    
    120000   273.95547      133.00815      197.61943      330.62758      6446.4396      2928.1157      2.7599858    
    121000   292.1104       123.8473       210.7156       334.5629       3980.7234      2926.6299      2.761387     
    122000   312.53384      132.52787      225.44817      357.97604      2666.1607      2932.2194      2.7561232    
    123000   282.39327      132.31015      203.70609      336.01624      1841.1358      2933.5071      2.7549133    
    124000   297.9474       131.80583      214.92615      346.73198     -4758.2044      2945.4359      2.7437561    
    125000   326.12568      132.82786      235.25273      368.08059     -2145.4895      2947.8801      2.7414812    
    126000   309.07411      131.56221      222.95247      354.51468     -7499.1854      2954.7912      2.735069     
    127000   297.30337      131.94772      214.46158      346.4093      -1617.6622      2944.3208      2.7447953    
    128000   272.58572      131.48371      196.63135      328.11506     -5871.064       2950.828       2.7387424    
    129000   306.38694      132.70722      221.01407      353.72128      3812.0911      2930.0513      2.7581626    
    130000   323.9877       132.50884      233.71048      366.21932      3566.2662      2932.0109      2.7563191    
    131000   288.42846      132.55848      208.05961      340.61808      2305.6785      2933.8623      2.7545798    
    132000   315.54936      133.32782      227.62344      360.95125      7728.2716      2925.8388      2.7621336    
    133000   315.26717      132.73298      227.41987      360.15286     -885.5666       2941.8468      2.7471035    
    134000   291.304        133.06198      210.1339       343.19588      3580.6075      2941.1809      2.7477255    
    135000   298.01971      131.64601      214.97832      346.62433     -5469.3516      2955.5091      2.7344046    
    136000   311.17455      131.6904       224.46764      356.15804     -612.70735      2944.1611      2.7449441    
    137000   270.03576      131.63871      194.79193      326.43063     -1427.4677      2941.9513      2.7470059    
    138000   291.84272      131.63384      210.5225       342.15634     -2280.5589      2942.6514      2.7463524    
    139000   326.42373      132.1793       235.46773      367.64703      645.92213      2936.359       2.7522376    
    140000   284.50139      132.70598      205.2268       337.93277     -3279.974       2938.653       2.7500892    
    141000   287.61777      124.52361      207.47482      331.99842      6522.7318      2919.9044      2.7677474    
    142000   278.22332      132.99097      200.69807      333.68904     -1492.7421      2936.3232      2.7522712    
    143000   291.14004      132.3226       210.01563      342.33823      3326.6376      2933.6417      2.7547869    
    144000   320.92227      131.6482       231.49922      363.14741     -52.747098      2942.7541      2.7462566    
    145000   313.78797      131.66821      226.35284      358.02105     -13.389028      2945.9877      2.7432422    
    146000   290.72943      132.57632      209.71943      342.29576     -74.519257      2950.9404      2.7386381    
    147000   297.51075      131.70658      214.61117      346.31776     -3447.9546      2952.527       2.7371664    
    148000   313.90614      132.19512      226.43808      358.63321      3263.1999      2937.1188      2.7515257    
    149000   303.99304      132.10904      219.28721      351.39626     -3131.0585      2944.1603      2.7449449    
    150000   291.7519       124.93006      210.457        335.38706      7987.3392      2917.5567      2.7699746    
    151000   274.682        132.64715      198.14351      330.79067     -812.00883      2934.7734      2.7537246    
    152000   296.40812      132.23367      213.81579      346.04946      22.598731      2935.4497      2.7530902    
    153000   322.74558      131.93916      232.81447      364.75363     -997.3623       2939.0975      2.7496733    
    154000   313.33566      131.91115      226.02657      357.93771     -9892.2245      2961.1906      2.7291583    
    155000   305.97357      138.09385      220.71588      358.80973     -3620.1738      2961.1144      2.7292285    
    156000   288.4912       131.69678      208.10487      339.80165     -6109.7466      2951.9897      2.7376646    
    157000   272.95225      132.57757      196.89575      329.47332      4213.6544      2931.923       2.7564018    
    158000   318.28293      132.22462      229.59531      361.81993      1422.2182      2937.1786      2.7514696    
    159000   292.10485      127.81716      210.7116       338.52876      6931.0205      2924.3384      2.7635509    
    160000   284.53917      123.83401      205.25404      329.08806      6949.6186      2923.7416      2.764115     
    161000   313.01081      131.77661      225.79223      357.56884      178.52052      2941.7611      2.7471836    
    162000   297.8011       132.07924      214.82062      346.89985      2150.2541      2939.3867      2.7494027    
    163000   287.9702       132.04326      207.72904      339.7723      -8728.7048      2961.7429      2.7286493    
    164000   317.80668      132.89836      229.25176      362.15012     -529.53036      2947.0502      2.7422532    
    165000   306.56277      131.57811      221.1409       352.71901     -4597.9733      2947.9458      2.7414201    
    166000   305.46059      132.08977      220.34584      352.43562     -18.505824      2937.8681      2.7508239    
    167000   261.13803      132.69103      188.37349      321.06452     -434.57259      2933.4083      2.7550061    
    168000   290.57549      123.75493      209.60838      333.36331      2028.8351      2926.613       2.761403     
    169000   296.55366      132.76212      213.92077      346.68289      3064.1332      2930.3808      2.7578525    
    170000   312.95124      131.80821      225.74927      357.55747     -1027.9847      2941.5673      2.7473646    
    171000   274.97761      132.49165      198.35676      330.84841      4025.7022      2935.3597      2.7531746    
    172000   300.74229      132.011        216.94227      348.95326     -5542.8594      2958.0364      2.7320685    
    173000   308.24736      132.74699      222.35609      355.10308      1809.0337      2946.9677      2.7423299    
    174000   335.79067      131.617        242.22463      373.84163     -854.99604      2947.0911      2.7422152    
    175000   291.44753      131.81561      210.23743      342.05304      1243.8338      2939.3611      2.7494267    
    176000   295.07399      132.09773      212.8534       344.95113      1815.5283      2935.9779      2.752595     
    177000   299.1121       132.87806      215.76632      348.64438     -134.30558      2934.4337      2.7540434    
    178000   310.82145      124.86058      224.21293      349.07351      6964.9267      2918.6161      2.7689691    
    179000   305.44294      132.25892      220.33311      352.59203     -5433.9755      2944.7691      2.7443774    
    180000   295.64602      132.17189      213.26604      345.43793     -564.94983      2940.1829      2.7486581    
    181000   273.64852      131.51204      197.39801      328.91005     -5087.7092      2948.6867      2.7407312    
    182000   293.07238      131.63975      211.40953      343.04928     -2399.9281      2945.5696      2.7436316    
    183000   312.19964      131.6965       225.20709      356.90359     -3455.2008      2950.9572      2.7386225    
    184000   315.53214      131.54296      227.61101      359.15397     -3890.4631      2951.4515      2.7381638    
    185000   293.98952      133.34909      212.07112      345.42021      7396.3119      2926.1485      2.7618413    
    186000   280.87411      125.13719      202.61024      327.74743      2428.4295      2928.5542      2.7595726    
    187000   310.05704      133.38995      223.66151      357.05146      7944.7628      2925.9882      2.7619926    
    188000   299.66275      132.02995      216.16353      348.19348     -66.962355      2941.2837      2.7476295    
    189000   281.90447      132.46287      203.35349      335.81636      815.2703       2946.1046      2.7431334    
    190000   284.22362      131.79644      205.02642      336.82286     -4055.716       2953.3528      2.7364011    
    191000   279.09577      131.58949      201.32742      332.91691     -3830.0286      2949.2553      2.7402028    
    192000   312.22367      132.1511       225.22443      357.37553      88.736032      2939.6554      2.7491515    
    193000   321.55966      127.75825      231.959        359.71725     -2324.9207      2932.2273      2.7561157    
    194000   312.03345      124.5524       225.08721      349.63961      5771.6832      2920.9432      2.7667631    
    195000   273.1881       132.49092      197.06588      329.55681     -2608.1409      2938.9845      2.749779     
    196000   286.38663      132.36734      206.58672      338.95406      1410.0911      2937.2839      2.751371     
    197000   304.53071      132.3507       219.67506      352.02577     -7864.2542      2963.0552      2.7274409    
    198000   322.86691      131.8312       232.90199      364.73319     -1595.1701      2949.4571      2.7400154    
    199000   304.60121      131.89157      219.72592      351.61749      1457.3793      2941.6666      2.7472719    
    200000   275.61456      133.1727       198.81622      331.98893      2476.3037      2933.507       2.7549134    
    200136   306.96439      133.35201      221.43062      354.78263      1481.2842      2946.8074      2.7424792    
Loop time of 14.6608 on 1 procs for 100000 steps with 243 atoms

Performance: 589.328 ns/day, 0.041 hours/ns, 6820.928 timesteps/s, 1.657 Matom-step/s
99.6% CPU use with 1 MPI tasks x 1 OpenMP threads

MPI task timing breakdown:
Section |  min time  |  avg time  |  max time  |%varavg| %total
---------------------------------------------------------------
Pair    | 7.5234     | 7.5234     | 7.5234     |   0.0 | 51.32
Bond    | 4.8239     | 4.8239     | 4.8239     |   0.0 | 32.90
Neigh   | 0.90547    | 0.90547    | 0.90547    |   0.0 |  6.18
Comm    | 0.40124    | 0.40124    | 0.40124    |   0.0 |  2.74
Output  | 0.34128    | 0.34128    | 0.34128    |   0.0 |  2.33
Modify  | 0.55895    | 0.55895    | 0.55895    |   0.0 |  3.81
Other   |            | 0.1065     |            |       |  0.73

Nlocal:            243 ave         243 max         243 min
Histogram: 1 0 0 0 0 0 0 0 0 0
Nghost:           1683 ave        1683 max        1683 min
Histogram: 1 0 0 0 0 0 0 0 0 0
Neighs:          12474 ave       12474 max       12474 min
Histogram: 1 0 0 0 0 0 0 0 0 0

Total # of neighbors = 12474
Ave neighs/atom = 51.333333
Ave special neighs/atom = 8
Neighbor list builds = 632
Dangerous builds = 0
unfix           npt_relax

# fix nvt_heat    all nvt temp 300 1000 ${thermal_damp}
# run 100000      # 100 picoseconds
# unfix           nvt_heat
#
# fix npt_heat    all npt temp 1000 1000 ${thermal_damp} iso 0 0 ${pressure_damp}
# run 100000      # 100 picoseconds
# unfix           npt_heat
#
# fix cooling_npt all npt temp 1000 300 ${thermal_damp} iso 0 0 ${pressure_damp}
# run 700000      # 700 picoseconds
# unfix           cooling_npt
#
# fix npt_final   all npt temp 300 300 ${thermal_damp} iso 0 0 100
# run 100000      # 100 picoseconds
# unfix           npt_final

# density computation
variable rho equal density
fix integrate  all npt temp ${temp} ${temp} ${thermal_damp} iso 0 0 ${pressure_damp}
fix integrate  all npt temp 300 ${temp} ${thermal_damp} iso 0 0 ${pressure_damp}
fix integrate  all npt temp 300 300 ${thermal_damp} iso 0 0 ${pressure_damp}
fix integrate  all npt temp 300 300 100.0 iso 0 0 ${pressure_damp}
fix integrate  all npt temp 300 300 100.0 iso 0 0 500.0
fix rho50k all ave/time 10 5000 50000 v_rho mode scalar ave one
run 50000
Generated 1 of 1 mixed pair_coeff terms from arithmetic mixing rule
WARNING: Inconsistent image flags
For more information see https://docs.lammps.org/err0027 (src/domain.cpp:1052)
Per MPI rank memory allocation (min/avg/max) = 13.43 | 13.43 | 13.43 Mbytes
   Step          Temp          PotEng         KinEng         TotEng         Press          Volume        Density    
    200136   306.96439      133.35201      221.43062      354.78263      1481.2842      2946.8074      2.7424792    
    201000   341.31881      133.08613      246.21238      379.29851      4405.2052      2928.5178      2.7596068    
    202000   308.55432      132.5185       222.57752      355.09602     -17.809127      2935.4732      2.7530681    
    203000   278.27987      130.22099      200.73886      330.95984      4645.9796      2925.6903      2.7622739    
    204000   301.3728       132.11652      217.39709      349.5136      -6747.0138      2949.074       2.7403713    
    205000   305.22161      132.41192      220.17345      352.58538     -1129.1667      2944.6275      2.7445094    
    206000   297.96698      131.60566      214.94028      346.54593     -5171.7299      2950.9436      2.7386352    
    207000   286.47859      131.89436      206.65306      338.54742     -1503.6988      2945.1021      2.7440671    
    208000   303.35142      131.68734      218.82437      350.51172     -2204.997       2946.9931      2.7423063    
    209000   301.23436      132.37552      217.29722      349.67274      1382.2411      2936.2466      2.752343     
    210000   304.64853      130.02814      219.76005      349.78819      7935.5577      2921.7678      2.7659822    
    211000   272.43706      132.68266      196.52412      329.20678      841.82726      2935.5086      2.753035     
    212000   306.29174      132.61432      220.94539      353.55971      4281.8763      2932.3276      2.7560215    
    213000   320.87504      131.89203      231.46515      363.35718     -2642.1177      2945.6567      2.7435505    
    214000   316.29039      132.39416      228.15798      360.55214      732.38482      2944.4467      2.7446779    
    215000   278.63005      131.86488      200.99147      332.85635     -6996.5568      2958.2875      2.7318365    
    216000   284.13288      131.73567      204.96097      336.69664     -2435.0983      2946.4731      2.7427903    
    217000   321.89256      132.10137      232.19914      364.30051      529.73246      2937.0597      2.751581     
    218000   303.50452      132.16025      218.93482      351.09506     -1187.7972      2938.3333      2.7503884    
    219000   289.71465      132.6019       208.98741      341.58931      2274.1648      2932.7726      2.7556033    
    220000   333.65091      132.29715      240.6811       372.97825     -776.10574      2938.7844      2.7499662    
    221000   302.00477      133.00949      217.85296      350.86245      5687.4356      2927.0318      2.7610079    
    222000   275.23685      132.07051      198.54376      330.61427     -1185.7296      2941.6585      2.7472794    
    223000   299.30472      133.50193      215.90526      349.4072      -2355.1686      2957.5178      2.7325474    
    224000   331.78026      132.43128      239.33169      371.76297     -1890.4487      2954.7055      2.7351483    
    225000   283.35753      131.71825      204.40166      336.11991     -1221.8618      2944.909       2.7442471    
    226000   301.19703      132.52794      217.27029      349.79823      4307.8418      2932.8236      2.7555554    
    227000   328.31864      132.00802      236.83463      368.84265     -328.38246      2939.9063      2.7489168    
    228000   289.75689      132.40278      209.01788      341.42066      2508.3867      2933.4091      2.7550053    
    229000   291.26619      132.85088      210.10662      342.9575      -313.16711      2934.8216      2.7536794    
    230000   312.55854      132.0065       225.46599      357.47248      3767.6704      2927.133       2.7609124    
    231000   288.67493      131.66228      208.2374       339.89969     -3814.0805      2946.8862      2.7424058    
    232000   300.10804      131.68242      216.48474      348.16717     -5879.4079      2953.0347      2.7366958    
    233000   305.49979      132.07793      220.37412      352.45205     -1923.4476      2946.1706      2.7430719    
    234000   312.09525      131.93714      225.13179      357.06893     -8384.4492      2958.6759      2.7314778    
    235000   287.22297      133.548        207.19002      340.73802      6182.7222      2927.6746      2.7604016    
    236000   289.89989      132.57767      209.12104      341.69871      108.83303      2936.7604      2.7518615    
    237000   291.02871      133.36057      209.93531      343.29588      6303.8847      2926.0759      2.7619098    
    238000   316.10046      132.47465      228.02097      360.49562      3825.5017      2930.4271      2.7578089    
    239000   270.81324      131.73642      195.35277      327.08919     -231.35504      2943.3539      2.7456969    
    240000   297.18766      131.88241      214.37811      346.26052      65.854224      2944.2695      2.7448431    
    241000   305.0062       131.67304      220.01806      351.6911      -1971.733       2945.7297      2.7434825    
    242000   320.835        131.92494      231.43626      363.3612       286.03774      2942.2875      2.7466921    
    243000   298.90336      131.73552      215.61574      347.35126     -5256.5051      2951.2315      2.738368     
    244000   280.39381      132.50914      202.26376      334.7729       1261.1861      2937.4047      2.7512579    
    245000   278.86352      132.9264       201.15988      334.08628     -1070.4462      2935.2326      2.7532938    
    246000   293.27169      124.58581      211.5533       336.13911      3857.1456      2924.5276      2.7633721    
    247000   321.32264      132.22852      231.78802      364.01654      2220.0929      2932.0995      2.7562359    
    248000   307.52827      131.94361      221.83738      353.78098     -1035.378       2941.1051      2.7477964    
    249000   300.27104      132.38918      216.60232      348.9915       2940.4983      2937.5455      2.751126     
    250000   273.03312      132.18846      196.95409      329.14255     -7735.2974      2961.1018      2.7292401    
    250136   290.65054      132.32143      209.66252      341.98395      2104.5961      2935.5217      2.7530227    
Loop time of 7.34543 on 1 procs for 50000 steps with 243 atoms

Performance: 588.121 ns/day, 0.041 hours/ns, 6806.957 timesteps/s, 1.654 Matom-step/s
99.6% CPU use with 1 MPI tasks x 1 OpenMP threads

MPI task timing breakdown:
Section |  min time  |  avg time  |  max time  |%varavg| %total
---------------------------------------------------------------
Pair    | 3.7665     | 3.7665     | 3.7665     |   0.0 | 51.28
Bond    | 2.4199     | 2.4199     | 2.4199     |   0.0 | 32.94
Neigh   | 0.45204    | 0.45204    | 0.45204    |   0.0 |  6.15
Comm    | 0.20079    | 0.20079    | 0.20079    |   0.0 |  2.73
Output  | 0.17244    | 0.17244    | 0.17244    |   0.0 |  2.35
Modify  | 0.2805     | 0.2805     | 0.2805     |   0.0 |  3.82
Other   |            | 0.05319    |            |       |  0.72

Nlocal:            243 ave         243 max         243 min
Histogram: 1 0 0 0 0 0 0 0 0 0
Nghost:           1766 ave        1766 max        1766 min
Histogram: 1 0 0 0 0 0 0 0 0 0
Neighs:          12316 ave       12316 max       12316 min
Histogram: 1 0 0 0 0 0 0 0 0 0

Total # of neighbors = 12316
Ave neighs/atom = 50.683128
Ave special neighs/atom = 8
Neighbor list builds = 315
Dangerous builds = 0
unfix integrate
unfix rho50k

# Compute initial state
fix 3 all box/relax  aniso 0.0
minimize ${etol} ${ftol} ${maxiter} ${maxeval}
minimize 0 ${ftol} ${maxiter} ${maxeval}
minimize 0 1e-10 ${maxiter} ${maxeval}
minimize 0 1e-10 100000 ${maxeval}
minimize 0 1e-10 100000 100000
Generated 1 of 1 mixed pair_coeff terms from arithmetic mixing rule
WARNING: Energy due to 3 extra global DOFs will be included in minimizer energies
 (src/min.cpp:222)
WARNING: Inconsistent image flags
For more information see https://docs.lammps.org/err0027 (src/domain.cpp:1052)
Per MPI rank memory allocation (min/avg/max) = 14.54 | 14.54 | 14.54 Mbytes
   Step          Temp          PotEng         KinEng         TotEng         Press          Volume        Density    
    250136   290.65054      132.32143      209.66252      341.98395      2104.5961      2935.5217      2.7530227    
    250201   290.65054      128.0399       209.66252      337.70242      3081.6008      2935.846       2.7527186    
Loop time of 0.0136411 on 1 procs for 65 steps with 243 atoms

100.0% CPU use with 1 MPI tasks x 1 OpenMP threads

Minimization stats:
  Stopping criterion = linesearch alpha is zero
  Energy initial, next-to-last, final = 
      132.321433227387    128.03990273012    128.03990273012
  Force two-norm initial, final = 971.84022 71.573523
  Force max component initial, final = 839.84335 13.665049
  Final line search alpha, max atom move = 1.7909907e-12 2.4473977e-11
  Iterations, force evaluations = 65 92

MPI task timing breakdown:
Section |  min time  |  avg time  |  max time  |%varavg| %total
---------------------------------------------------------------
Pair    | 0.0072408  | 0.0072408  | 0.0072408  |   0.0 | 53.08
Bond    | 0.003949   | 0.003949   | 0.003949   |   0.0 | 28.95
Neigh   | 0          | 0          | 0          |   0.0 |  0.00
Comm    | 0.00031079 | 0.00031079 | 0.00031079 |   0.0 |  2.28
Output  | 0.00030702 | 0.00030702 | 0.00030702 |   0.0 |  2.25
Modify  | 0          | 0          | 0          |   0.0 |  0.00
Other   |            | 0.001833   |            |       | 13.44

Nlocal:            243 ave         243 max         243 min
Histogram: 1 0 0 0 0 0 0 0 0 0
Nghost:           1773 ave        1773 max        1773 min
Histogram: 1 0 0 0 0 0 0 0 0 0
Neighs:          12379 ave       12379 max       12379 min
Histogram: 1 0 0 0 0 0 0 0 0 0

Total # of neighbors = 12379
Ave neighs/atom = 50.942387
Ave special neighs/atom = 8
Neighbor list builds = 0
Dangerous builds = 0

variable tmp equal pxx
variable pxx0 equal ${tmp}
variable pxx0 equal 225.950655100786
variable tmp equal pyy
variable pyy0 equal ${tmp}
variable pyy0 equal 41.0209317206047
variable tmp equal pzz
variable pzz0 equal ${tmp}
variable pzz0 equal 8977.83070142796
variable tmp equal pyz
variable pyz0 equal ${tmp}
variable pyz0 equal -1045.20319557753
variable tmp equal pxz
variable pxz0 equal ${tmp}
variable pxz0 equal -1673.43277857527
variable tmp equal pxy
variable pxy0 equal ${tmp}
variable pxy0 equal 164.953324190816

variable tmp equal lx
variable lx0 equal ${tmp}
variable lx0 equal 14.6577951033429
variable tmp equal ly
variable ly0 equal ${tmp}
variable ly0 equal 12.6939689999267
variable tmp equal lz
variable lz0 equal ${tmp}
variable lz0 equal 15.7785534379992

# These formulas define the derivatives w.r.t. strain components
# Constants uses $, variables use v_
variable d1 equal -(v_pxx1-${pxx0})/(v_delta/v_len0)*${cfac}
variable d1 equal -(v_pxx1-225.950655100786)/(v_delta/v_len0)*${cfac}
variable d1 equal -(v_pxx1-225.950655100786)/(v_delta/v_len0)*0.0001
variable d2 equal -(v_pyy1-${pyy0})/(v_delta/v_len0)*${cfac}
variable d2 equal -(v_pyy1-41.0209317206047)/(v_delta/v_len0)*${cfac}
variable d2 equal -(v_pyy1-41.0209317206047)/(v_delta/v_len0)*0.0001
variable d3 equal -(v_pzz1-${pzz0})/(v_delta/v_len0)*${cfac}
variable d3 equal -(v_pzz1-8977.83070142796)/(v_delta/v_len0)*${cfac}
variable d3 equal -(v_pzz1-8977.83070142796)/(v_delta/v_len0)*0.0001
variable d4 equal -(v_pyz1-${pyz0})/(v_delta/v_len0)*${cfac}
variable d4 equal -(v_pyz1--1045.20319557753)/(v_delta/v_len0)*${cfac}
variable d4 equal -(v_pyz1--1045.20319557753)/(v_delta/v_len0)*0.0001
variable d5 equal -(v_pxz1-${pxz0})/(v_delta/v_len0)*${cfac}
variable d5 equal -(v_pxz1--1673.43277857527)/(v_delta/v_len0)*${cfac}
variable d5 equal -(v_pxz1--1673.43277857527)/(v_delta/v_len0)*0.0001
variable d6 equal -(v_pxy1-${pxy0})/(v_delta/v_len0)*${cfac}
variable d6 equal -(v_pxy1-164.953324190816)/(v_delta/v_len0)*${cfac}
variable d6 equal -(v_pxy1-164.953324190816)/(v_delta/v_len0)*0.0001

# displace_atoms all random ${atomjiggle} ${atomjiggle} ${atomjiggle} 87287 units box

# Write restart
unfix 3
write_restart restart_333SiO2-1-UFF.equil
System init for write_restart ...
Generated 1 of 1 mixed pair_coeff terms from arithmetic mixing rule

# uxx Perturbation

variable dir equal 1
include ./input/displace_333SiO2-1-UFF.mod
if "${dir} == 1" then    "variable len0 equal ${lx0}"
variable len0 equal ${lx0}
variable len0 equal 14.6577951033429
if "${dir} == 2" then    "variable len0 equal ${ly0}"
if "${dir} == 3" then    "variable len0 equal ${lz0}"
if "${dir} == 4" then    "variable len0 equal ${lz0}"
if "${dir} == 5" then    "variable len0 equal ${lz0}"
if "${dir} == 6" then    "variable len0 equal ${ly0}"

# Reset box and simulation parameters

clear
OMP_NUM_THREADS environment is not set. Defaulting to 1 thread.
  using 1 OpenMP thread(s) per MPI task
box tilt large

The 'box' command has been removed and will be ignored

read_restart restart_333SiO2-1-UFF.equil
Reading restart file ...
  restart file = 10 Sep 2025, LAMMPS = 10 Sep 2025
  restoring atom style full from restart
  triclinic box = (0.016752448 0.014535 0.092273281) to (14.674548 12.708504 15.870827) with tilt (-7.3288664 0 0)
WARNING: Triclinic box skew is large. LAMMPS will run inefficiently. (src/domain.cpp:221)
  1 by 1 by 1 MPI processor grid
  restoring pair style lj/cut from restart
  restoring bond style harmonic from restart
  restoring angle style hybrid from restart
  restoring dihedral style harmonic from restart
  243 atoms
  324 bonds
  648 angles
  972 dihedrals
Finding 1-2 1-3 1-4 neighbors ...
  special bond factors lj:    0        0        1       
  special bond factors coul:  0        0        1       
     4 = max # of 1-2 neighbors
     6 = max # of 1-3 neighbors
     8 = max # of special neighbors
  special bonds CPU = 0.000 seconds
  read_restart CPU = 0.001 seconds
include ./input/angles_333SiO2-1-UFF.mod
angle_style hybrid fourier cosine/periodic
angle_coeff 1 fourier 221.735285        0.343737        0.374972        0.281246
angle_coeff 2 cosine/periodic 88.853997              -1               3

# Negative deformation

variable delta equal -${up}*${len0}
variable delta equal -0.02*${len0}
variable delta equal -0.02*14.6577951033429
variable deltaxy equal -${up}*xy
variable deltaxy equal -0.02*xy
variable deltaxz equal -${up}*xz
variable deltaxz equal -0.02*xz
variable deltayz equal -${up}*yz
variable deltayz equal -0.02*yz
if "${dir} == 1" then    "change_box all x delta 0 ${delta} xy delta ${deltaxy} xz delta ${deltaxz} remap units box"
change_box all x delta 0 ${delta} xy delta ${deltaxy} xz delta ${deltaxz} remap units box
change_box all x delta 0 -0.293155902066858 xy delta ${deltaxy} xz delta ${deltaxz} remap units box
change_box all x delta 0 -0.293155902066858 xy delta 0.146577328552256 xz delta ${deltaxz} remap units box
change_box all x delta 0 -0.293155902066858 xy delta 0.146577328552256 xz delta 0 remap units box
Changing box ...
WARNING: Triclinic box skew is large. LAMMPS will run inefficiently. (src/domain.cpp:221)
  triclinic box = (0.016752448 0.014535 0.092273281) to (14.381392 12.708504 15.870827) with tilt (-7.3288664 0 0)
WARNING: Triclinic box skew is large. LAMMPS will run inefficiently. (src/domain.cpp:221)
  triclinic box = (0.016752448 0.014535 0.092273281) to (14.381392 12.708504 15.870827) with tilt (-7.1822891 0 0)
WARNING: Triclinic box skew is large. LAMMPS will run inefficiently. (src/domain.cpp:221)
  triclinic box = (0.016752448 0.014535 0.092273281) to (14.381392 12.708504 15.870827) with tilt (-7.1822891 0 0)
if "${dir} == 2" then    "change_box all y delta 0 ${delta} yz delta ${deltayz} remap units box"
if "${dir} == 3" then    "change_box all z delta 0 ${delta} remap units box"
if "${dir} == 4" then    "change_box all yz delta ${delta} remap units box"
if "${dir} == 5" then    "change_box all xz delta ${delta} remap units box"
if "${dir} == 6" then    "change_box all xy delta ${delta} remap units box"

# Relax atoms positions

minimize ${etol} ${ftol} ${maxiter} ${maxeval}
minimize 0 ${ftol} ${maxiter} ${maxeval}
minimize 0 1e-10 ${maxiter} ${maxeval}
minimize 0 1e-10 100000 ${maxeval}
minimize 0 1e-10 100000 100000
Generated 1 of 1 mixed pair_coeff terms from arithmetic mixing rule
Neighbor list info ...
  update: every = 1 steps, delay = 0 steps, check = yes
  max neighbors/atom: 2000, page size: 100000
  master list distance cutoff = 7
  ghost atom cutoff = 7
  binsize = 3.5, bins = 7 4 5
  1 neighbor lists, perpetual/occasional/extra = 1 0 0
  (1) pair lj/cut, perpetual
      attributes: half, newton on
      pair build: half/bin/newton/tri
      stencil: half/bin/3d/tri
      bin: standard
WARNING: Inconsistent image flags
For more information see https://docs.lammps.org/err0027 (src/domain.cpp:1052)
Per MPI rank memory allocation (min/avg/max) = 13.48 | 13.48 | 13.48 Mbytes
   Step          Temp          E_pair         E_mol          TotEng         Press     
    250201   290.65054     -514.25822      676.95536      372.35966      43252.503    
    250378   290.65054     -489.00324      636.85213      357.51141      29566.154    
Loop time of 0.0415497 on 1 procs for 177 steps with 243 atoms

100.0% CPU use with 1 MPI tasks x 1 OpenMP threads

Minimization stats:
  Stopping criterion = force tolerance
  Energy initial, next-to-last, final = 
      162.697144224079   147.848891016469   147.848891016469
  Force two-norm initial, final = 158.27398 9.8252827e-11
  Force max component initial, final = 13.808449 1.3545609e-11
  Final line search alpha, max atom move = 1 1.3545609e-11
  Iterations, force evaluations = 177 356

MPI task timing breakdown:
Section |  min time  |  avg time  |  max time  |%varavg| %total
---------------------------------------------------------------
Pair    | 0.026665   | 0.026665   | 0.026665   |   0.0 | 64.18
Bond    | 0.012763   | 0.012763   | 0.012763   |   0.0 | 30.72
Neigh   | 0          | 0          | 0          |   0.0 |  0.00
Comm    | 0.0011729  | 0.0011729  | 0.0011729  |   0.0 |  2.82
Output  | 0          | 0          | 0          |   0.0 |  0.00
Modify  | 0          | 0          | 0          |   0.0 |  0.00
Other   |            | 0.000948   |            |       |  2.28

Nlocal:            243 ave         243 max         243 min
Histogram: 1 0 0 0 0 0 0 0 0 0
Nghost:           1773 ave        1773 max        1773 min
Histogram: 1 0 0 0 0 0 0 0 0 0
Neighs:          12751 ave       12751 max       12751 min
Histogram: 1 0 0 0 0 0 0 0 0 0

Total # of neighbors = 12751
Ave neighs/atom = 52.473251
Ave special neighs/atom = 8
Neighbor list builds = 0
Dangerous builds = 0

# Obtain new stress tensor

variable tmp equal pxx
variable pxx1 equal ${tmp}
variable pxx1 equal 48853.9892548225
variable tmp equal pyy
variable pyy1 equal ${tmp}
variable pyy1 equal 21509.3734367673
variable tmp equal pzz
variable pzz1 equal ${tmp}
variable pzz1 equal 18335.0990762277
variable tmp equal pxy
variable pxy1 equal ${tmp}
variable pxy1 equal 188.874342250466
variable tmp equal pxz
variable pxz1 equal ${tmp}
variable pxz1 equal -1703.53257445588
variable tmp equal pyz
variable pyz1 equal ${tmp}
variable pyz1 equal 3044.1446094433

# Compute elastic constant from pressure tensor

variable C1neg equal ${d1}
variable C1neg equal 243.140192998609
variable C2neg equal ${d2}
variable C2neg equal 107.341762525233
variable C3neg equal ${d3}
variable C3neg equal 46.7863418739987
variable C4neg equal ${d4}
variable C4neg equal 20.4467390251042
variable C5neg equal ${d5}
variable C5neg equal -0.15049897940305
variable C6neg equal ${d6}
variable C6neg equal 0.11960509029825

# Reset box and simulation parameters

clear
OMP_NUM_THREADS environment is not set. Defaulting to 1 thread.
  using 1 OpenMP thread(s) per MPI task
box tilt large

The 'box' command has been removed and will be ignored

read_restart restart_333SiO2-1-UFF.equil
Reading restart file ...
  restart file = 10 Sep 2025, LAMMPS = 10 Sep 2025
  restoring atom style full from restart
  triclinic box = (0.016752448 0.014535 0.092273281) to (14.674548 12.708504 15.870827) with tilt (-7.3288664 0 0)
WARNING: Triclinic box skew is large. LAMMPS will run inefficiently. (src/domain.cpp:221)
  1 by 1 by 1 MPI processor grid
  restoring pair style lj/cut from restart
  restoring bond style harmonic from restart
  restoring angle style hybrid from restart
  restoring dihedral style harmonic from restart
  243 atoms
  324 bonds
  648 angles
  972 dihedrals
Finding 1-2 1-3 1-4 neighbors ...
  special bond factors lj:    0        0        1       
  special bond factors coul:  0        0        1       
     4 = max # of 1-2 neighbors
     6 = max # of 1-3 neighbors
     8 = max # of special neighbors
  special bonds CPU = 0.000 seconds
  read_restart CPU = 0.001 seconds
include ./input/angles_333SiO2-1-UFF.mod
angle_style hybrid fourier cosine/periodic
angle_coeff 1 fourier 221.735285        0.343737        0.374972        0.281246
angle_coeff 2 cosine/periodic 88.853997              -1               3

# Positive deformation

variable delta equal ${up}*${len0}
variable delta equal 0.02*${len0}
variable delta equal 0.02*14.6577951033429
variable deltaxy equal ${up}*xy
variable deltaxy equal 0.02*xy
variable deltaxz equal ${up}*xz
variable deltaxz equal 0.02*xz
variable deltayz equal ${up}*yz
variable deltayz equal 0.02*yz
if "${dir} == 1" then    "change_box all x delta 0 ${delta} xy delta ${deltaxy} xz delta ${deltaxz} remap units box"
change_box all x delta 0 ${delta} xy delta ${deltaxy} xz delta ${deltaxz} remap units box
change_box all x delta 0 0.293155902066858 xy delta ${deltaxy} xz delta ${deltaxz} remap units box
change_box all x delta 0 0.293155902066858 xy delta -0.146577328552256 xz delta ${deltaxz} remap units box
change_box all x delta 0 0.293155902066858 xy delta -0.146577328552256 xz delta 0 remap units box
Changing box ...
WARNING: Triclinic box skew is large. LAMMPS will run inefficiently. (src/domain.cpp:221)
  triclinic box = (0.016752448 0.014535 0.092273281) to (14.967703 12.708504 15.870827) with tilt (-7.3288664 0 0)
WARNING: Triclinic box skew is large. LAMMPS will run inefficiently. (src/domain.cpp:221)
  triclinic box = (0.016752448 0.014535 0.092273281) to (14.967703 12.708504 15.870827) with tilt (-7.4754438 0 0)
WARNING: Triclinic box skew is large. LAMMPS will run inefficiently. (src/domain.cpp:221)
  triclinic box = (0.016752448 0.014535 0.092273281) to (14.967703 12.708504 15.870827) with tilt (-7.4754438 0 0)
if "${dir} == 2" then    "change_box all y delta 0 ${delta} yz delta ${deltayz} remap units box"
if "${dir} == 3" then    "change_box all z delta 0 ${delta} remap units box"
if "${dir} == 4" then    "change_box all yz delta ${delta} remap units box"
if "${dir} == 5" then    "change_box all xz delta ${delta} remap units box"
if "${dir} == 6" then    "change_box all xy delta ${delta} remap units box"

# Relax atoms positions

minimize ${etol} ${ftol} ${maxiter} ${maxeval}
minimize 0 ${ftol} ${maxiter} ${maxeval}
minimize 0 1e-10 ${maxiter} ${maxeval}
minimize 0 1e-10 100000 ${maxeval}
minimize 0 1e-10 100000 100000
Generated 1 of 1 mixed pair_coeff terms from arithmetic mixing rule
Neighbor list info ...
  update: every = 1 steps, delay = 0 steps, check = yes
  max neighbors/atom: 2000, page size: 100000
  master list distance cutoff = 7
  ghost atom cutoff = 7
  binsize = 3.5, bins = 7 4 5
  1 neighbor lists, perpetual/occasional/extra = 1 0 0
  (1) pair lj/cut, perpetual
      attributes: half, newton on
      pair build: half/bin/newton/tri
      stencil: half/bin/3d/tri
      bin: standard
WARNING: Inconsistent image flags
For more information see https://docs.lammps.org/err0027 (src/domain.cpp:1052)
Per MPI rank memory allocation (min/avg/max) = 13.48 | 13.48 | 13.48 Mbytes
   Step          Temp          E_pair         E_mol          TotEng         Press     
    250201   290.65054     -534.9371       706.27736      381.00278     -35614.071    
    250367   290.65054     -551.99129      701.71586      359.38709     -21106.422    
Loop time of 0.03823 on 1 procs for 166 steps with 243 atoms

99.5% CPU use with 1 MPI tasks x 1 OpenMP threads

Minimization stats:
  Stopping criterion = force tolerance
  Energy initial, next-to-last, final = 
       171.34025871468   149.724565410486   149.724565410486
  Force two-norm initial, final = 230.91626 9.794498e-11
  Force max component initial, final = 20.452067 1.3640644e-11
  Final line search alpha, max atom move = 1 1.3640644e-11
  Iterations, force evaluations = 166 334

MPI task timing breakdown:
Section |  min time  |  avg time  |  max time  |%varavg| %total
---------------------------------------------------------------
Pair    | 0.024093   | 0.024093   | 0.024093   |   0.0 | 63.02
Bond    | 0.012093   | 0.012093   | 0.012093   |   0.0 | 31.63
Neigh   | 0          | 0          | 0          |   0.0 |  0.00
Comm    | 0.0010729  | 0.0010729  | 0.0010729  |   0.0 |  2.81
Output  | 0          | 0          | 0          |   0.0 |  0.00
Modify  | 0          | 0          | 0          |   0.0 |  0.00
Other   |            | 0.0009715  |            |       |  2.54

Nlocal:            243 ave         243 max         243 min
Histogram: 1 0 0 0 0 0 0 0 0 0
Nghost:           1773 ave        1773 max        1773 min
Histogram: 1 0 0 0 0 0 0 0 0 0
Neighs:          11988 ave       11988 max       11988 min
Histogram: 1 0 0 0 0 0 0 0 0 0

Total # of neighbors = 11988
Ave neighs/atom = 49.333333
Ave special neighs/atom = 8
Neighbor list builds = 0
Dangerous builds = 0

# Obtain new stress tensor

variable tmp equal pe
variable e1 equal ${tmp}
variable e1 equal 149.724565410486
variable tmp equal press
variable p1 equal ${tmp}
variable p1 equal -21106.421896624
variable tmp equal pxx
variable pxx1 equal ${tmp}
variable pxx1 equal -37986.3217519472
variable tmp equal pyy
variable pyy1 equal ${tmp}
variable pyy1 equal -13344.6056395331
variable tmp equal pzz
variable pzz1 equal ${tmp}
variable pzz1 equal -11988.3382983918
variable tmp equal pxy
variable pxy1 equal ${tmp}
variable pxy1 equal 181.443948508124
variable tmp equal pxz
variable pxz1 equal ${tmp}
variable pxz1 equal -1636.59868238817
variable tmp equal pyz
variable pyz1 equal ${tmp}
variable pyz1 equal -4321.82257886662

# Compute elastic constant from pressure tensor

variable C1pos equal ${d1}
variable C1pos equal 191.06136203524
variable C2pos equal ${d2}
variable C2pos equal 66.9281328562685
variable C3pos equal ${d3}
variable C3pos equal 104.830844999099
variable C4pos equal ${d4}
variable C4pos equal 16.3830969164454
variable C5pos equal ${d5}
variable C5pos equal -0.184170480935501
variable C6pos equal ${d6}
variable C6pos equal -0.08245312158654

# Combine positive and negative

variable C1${dir} equal 0.5*(${C1neg}+${C1pos})
variable C11 equal 0.5*(${C1neg}+${C1pos})
variable C11 equal 0.5*(243.140192998609+${C1pos})
variable C11 equal 0.5*(243.140192998609+191.06136203524)
variable C2${dir} equal 0.5*(${C2neg}+${C2pos})
variable C21 equal 0.5*(${C2neg}+${C2pos})
variable C21 equal 0.5*(107.341762525233+${C2pos})
variable C21 equal 0.5*(107.341762525233+66.9281328562685)
variable C3${dir} equal 0.5*(${C3neg}+${C3pos})
variable C31 equal 0.5*(${C3neg}+${C3pos})
variable C31 equal 0.5*(46.7863418739987+${C3pos})
variable C31 equal 0.5*(46.7863418739987+104.830844999099)
variable C4${dir} equal 0.5*(${C4neg}+${C4pos})
variable C41 equal 0.5*(${C4neg}+${C4pos})
variable C41 equal 0.5*(20.4467390251042+${C4pos})
variable C41 equal 0.5*(20.4467390251042+16.3830969164454)
variable C5${dir} equal 0.5*(${C5neg}+${C5pos})
variable C51 equal 0.5*(${C5neg}+${C5pos})
variable C51 equal 0.5*(-0.15049897940305+${C5pos})
variable C51 equal 0.5*(-0.15049897940305+-0.184170480935501)
variable C6${dir} equal 0.5*(${C6neg}+${C6pos})
variable C61 equal 0.5*(${C6neg}+${C6pos})
variable C61 equal 0.5*(0.11960509029825+${C6pos})
variable C61 equal 0.5*(0.11960509029825+-0.08245312158654)

# Delete dir to make sure it is not reused

variable dir delete

# uyy Perturbation

variable dir equal 2
include ./input/displace_333SiO2-1-UFF.mod
if "${dir} == 1" then    "variable len0 equal ${lx0}"
if "${dir} == 2" then    "variable len0 equal ${ly0}"
variable len0 equal ${ly0}
variable len0 equal 12.6939689999267
if "${dir} == 3" then    "variable len0 equal ${lz0}"
if "${dir} == 4" then    "variable len0 equal ${lz0}"
if "${dir} == 5" then    "variable len0 equal ${lz0}"
if "${dir} == 6" then    "variable len0 equal ${ly0}"

# Reset box and simulation parameters

clear
OMP_NUM_THREADS environment is not set. Defaulting to 1 thread.
  using 1 OpenMP thread(s) per MPI task
box tilt large

The 'box' command has been removed and will be ignored

read_restart restart_333SiO2-1-UFF.equil
Reading restart file ...
  restart file = 10 Sep 2025, LAMMPS = 10 Sep 2025
  restoring atom style full from restart
  triclinic box = (0.016752448 0.014535 0.092273281) to (14.674548 12.708504 15.870827) with tilt (-7.3288664 0 0)
WARNING: Triclinic box skew is large. LAMMPS will run inefficiently. (src/domain.cpp:221)
  1 by 1 by 1 MPI processor grid
  restoring pair style lj/cut from restart
  restoring bond style harmonic from restart
  restoring angle style hybrid from restart
  restoring dihedral style harmonic from restart
  243 atoms
  324 bonds
  648 angles
  972 dihedrals
Finding 1-2 1-3 1-4 neighbors ...
  special bond factors lj:    0        0        1       
  special bond factors coul:  0        0        1       
     4 = max # of 1-2 neighbors
     6 = max # of 1-3 neighbors
     8 = max # of special neighbors
  special bonds CPU = 0.000 seconds
  read_restart CPU = 0.001 seconds
include ./input/angles_333SiO2-1-UFF.mod
angle_style hybrid fourier cosine/periodic
angle_coeff 1 fourier 221.735285        0.343737        0.374972        0.281246
angle_coeff 2 cosine/periodic 88.853997              -1               3

# Negative deformation

variable delta equal -${up}*${len0}
variable delta equal -0.02*${len0}
variable delta equal -0.02*12.6939689999267
variable deltaxy equal -${up}*xy
variable deltaxy equal -0.02*xy
variable deltaxz equal -${up}*xz
variable deltaxz equal -0.02*xz
variable deltayz equal -${up}*yz
variable deltayz equal -0.02*yz
if "${dir} == 1" then    "change_box all x delta 0 ${delta} xy delta ${deltaxy} xz delta ${deltaxz} remap units box"
if "${dir} == 2" then    "change_box all y delta 0 ${delta} yz delta ${deltayz} remap units box"
change_box all y delta 0 ${delta} yz delta ${deltayz} remap units box
change_box all y delta 0 -0.253879379998534 yz delta ${deltayz} remap units box
change_box all y delta 0 -0.253879379998534 yz delta 0 remap units box
Changing box ...
WARNING: Triclinic box skew is large. LAMMPS will run inefficiently. (src/domain.cpp:221)
  triclinic box = (0.016752448 0.014535 0.092273281) to (14.674548 12.454625 15.870827) with tilt (-7.3288664 0 0)
WARNING: Triclinic box skew is large. LAMMPS will run inefficiently. (src/domain.cpp:221)
  triclinic box = (0.016752448 0.014535 0.092273281) to (14.674548 12.454625 15.870827) with tilt (-7.3288664 0 0)
if "${dir} == 3" then    "change_box all z delta 0 ${delta} remap units box"
if "${dir} == 4" then    "change_box all yz delta ${delta} remap units box"
if "${dir} == 5" then    "change_box all xz delta ${delta} remap units box"
if "${dir} == 6" then    "change_box all xy delta ${delta} remap units box"

# Relax atoms positions

minimize ${etol} ${ftol} ${maxiter} ${maxeval}
minimize 0 ${ftol} ${maxiter} ${maxeval}
minimize 0 1e-10 ${maxiter} ${maxeval}
minimize 0 1e-10 100000 ${maxeval}
minimize 0 1e-10 100000 100000
Generated 1 of 1 mixed pair_coeff terms from arithmetic mixing rule
Neighbor list info ...
  update: every = 1 steps, delay = 0 steps, check = yes
  max neighbors/atom: 2000, page size: 100000
  master list distance cutoff = 7
  ghost atom cutoff = 7
  binsize = 3.5, bins = 7 4 5
  1 neighbor lists, perpetual/occasional/extra = 1 0 0
  (1) pair lj/cut, perpetual
      attributes: half, newton on
      pair build: half/bin/newton/tri
      stencil: half/bin/3d/tri
      bin: standard
WARNING: Inconsistent image flags
For more information see https://docs.lammps.org/err0027 (src/domain.cpp:1052)
Per MPI rank memory allocation (min/avg/max) = 13.48 | 13.48 | 13.48 Mbytes
   Step          Temp          E_pair         E_mol          TotEng         Press     
    250201   290.65054     -515.02747      676.95078      371.58584      43217.206    
    250394   290.65054     -489.79646      636.81335      356.67941      29518.742    
Loop time of 0.0463969 on 1 procs for 193 steps with 243 atoms

100.0% CPU use with 1 MPI tasks x 1 OpenMP threads

Minimization stats:
  Stopping criterion = force tolerance
  Energy initial, next-to-last, final = 
      161.923317973018   147.016888089134   147.016888089133
  Force two-norm initial, final = 158.39237 9.6836326e-11
  Force max component initial, final = 14.84153 1.0624807e-11
  Final line search alpha, max atom move = 1 1.0624807e-11
  Iterations, force evaluations = 193 393

MPI task timing breakdown:
Section |  min time  |  avg time  |  max time  |%varavg| %total
---------------------------------------------------------------
Pair    | 0.029818   | 0.029818   | 0.029818   |   0.0 | 64.27
Bond    | 0.014226   | 0.014226   | 0.014226   |   0.0 | 30.66
Neigh   | 0          | 0          | 0          |   0.0 |  0.00
Comm    | 0.0013011  | 0.0013011  | 0.0013011  |   0.0 |  2.80
Output  | 0          | 0          | 0          |   0.0 |  0.00
Modify  | 0          | 0          | 0          |   0.0 |  0.00
Other   |            | 0.001052   |            |       |  2.27

Nlocal:            243 ave         243 max         243 min
Histogram: 1 0 0 0 0 0 0 0 0 0
Nghost:           1773 ave        1773 max        1773 min
Histogram: 1 0 0 0 0 0 0 0 0 0
Neighs:          12783 ave       12783 max       12783 min
Histogram: 1 0 0 0 0 0 0 0 0 0

Total # of neighbors = 12783
Ave neighs/atom = 52.604938
Ave special neighs/atom = 8
Neighbor list builds = 0
Dangerous builds = 0

# Obtain new stress tensor

variable tmp equal pxx
variable pxx1 equal ${tmp}
variable pxx1 equal 21952.3705443742
variable tmp equal pyy
variable pyy1 equal ${tmp}
variable pyy1 equal 48332.3753479161
variable tmp equal pzz
variable pzz1 equal ${tmp}
variable pzz1 equal 18271.479172656
variable tmp equal pxy
variable pxy1 equal ${tmp}
variable pxy1 equal 188.818857296444
variable tmp equal pxz
variable pxz1 equal ${tmp}
variable pxz1 equal -1703.51829399092
variable tmp equal pyz
variable pyz1 equal ${tmp}
variable pyz1 equal -5251.58096918166

# Compute elastic constant from pressure tensor

variable C1neg equal ${d1}
variable C1neg equal 108.632099446367
variable C2neg equal ${d2}
variable C2neg equal 241.456772080978
variable C3neg equal ${d3}
variable C3neg equal 46.4682423561402
variable C4neg equal ${d4}
variable C4neg equal -21.0318888680207
variable C5neg equal ${d5}
variable C5neg equal -0.15042757707825
variable C6neg equal ${d6}
variable C6neg equal 0.11932766552814

# Reset box and simulation parameters

clear
OMP_NUM_THREADS environment is not set. Defaulting to 1 thread.
  using 1 OpenMP thread(s) per MPI task
box tilt large

The 'box' command has been removed and will be ignored

read_restart restart_333SiO2-1-UFF.equil
Reading restart file ...
  restart file = 10 Sep 2025, LAMMPS = 10 Sep 2025
  restoring atom style full from restart
  triclinic box = (0.016752448 0.014535 0.092273281) to (14.674548 12.708504 15.870827) with tilt (-7.3288664 0 0)
WARNING: Triclinic box skew is large. LAMMPS will run inefficiently. (src/domain.cpp:221)
  1 by 1 by 1 MPI processor grid
  restoring pair style lj/cut from restart
  restoring bond style harmonic from restart
  restoring angle style hybrid from restart
  restoring dihedral style harmonic from restart
  243 atoms
  324 bonds
  648 angles
  972 dihedrals
Finding 1-2 1-3 1-4 neighbors ...
  special bond factors lj:    0        0        1       
  special bond factors coul:  0        0        1       
     4 = max # of 1-2 neighbors
     6 = max # of 1-3 neighbors
     8 = max # of special neighbors
  special bonds CPU = 0.000 seconds
  read_restart CPU = 0.001 seconds
include ./input/angles_333SiO2-1-UFF.mod
angle_style hybrid fourier cosine/periodic
angle_coeff 1 fourier 221.735285        0.343737        0.374972        0.281246
angle_coeff 2 cosine/periodic 88.853997              -1               3

# Positive deformation

variable delta equal ${up}*${len0}
variable delta equal 0.02*${len0}
variable delta equal 0.02*12.6939689999267
variable deltaxy equal ${up}*xy
variable deltaxy equal 0.02*xy
variable deltaxz equal ${up}*xz
variable deltaxz equal 0.02*xz
variable deltayz equal ${up}*yz
variable deltayz equal 0.02*yz
if "${dir} == 1" then    "change_box all x delta 0 ${delta} xy delta ${deltaxy} xz delta ${deltaxz} remap units box"
if "${dir} == 2" then    "change_box all y delta 0 ${delta} yz delta ${deltayz} remap units box"
change_box all y delta 0 ${delta} yz delta ${deltayz} remap units box
change_box all y delta 0 0.253879379998534 yz delta ${deltayz} remap units box
change_box all y delta 0 0.253879379998534 yz delta 0 remap units box
Changing box ...
WARNING: Triclinic box skew is large. LAMMPS will run inefficiently. (src/domain.cpp:221)
  triclinic box = (0.016752448 0.014535 0.092273281) to (14.674548 12.962383 15.870827) with tilt (-7.3288664 0 0)
WARNING: Triclinic box skew is large. LAMMPS will run inefficiently. (src/domain.cpp:221)
  triclinic box = (0.016752448 0.014535 0.092273281) to (14.674548 12.962383 15.870827) with tilt (-7.3288664 0 0)
if "${dir} == 3" then    "change_box all z delta 0 ${delta} remap units box"
if "${dir} == 4" then    "change_box all yz delta ${delta} remap units box"
if "${dir} == 5" then    "change_box all xz delta ${delta} remap units box"
if "${dir} == 6" then    "change_box all xy delta ${delta} remap units box"

# Relax atoms positions

minimize ${etol} ${ftol} ${maxiter} ${maxeval}
minimize 0 ${ftol} ${maxiter} ${maxeval}
minimize 0 1e-10 ${maxiter} ${maxeval}
minimize 0 1e-10 100000 ${maxeval}
minimize 0 1e-10 100000 100000
Generated 1 of 1 mixed pair_coeff terms from arithmetic mixing rule
Neighbor list info ...
  update: every = 1 steps, delay = 0 steps, check = yes
  max neighbors/atom: 2000, page size: 100000
  master list distance cutoff = 7
  ghost atom cutoff = 7
  binsize = 3.5, bins = 7 4 5
  1 neighbor lists, perpetual/occasional/extra = 1 0 0
  (1) pair lj/cut, perpetual
      attributes: half, newton on
      pair build: half/bin/newton/tri
      stencil: half/bin/3d/tri
      bin: standard
WARNING: Inconsistent image flags
For more information see https://docs.lammps.org/err0027 (src/domain.cpp:1052)
Per MPI rank memory allocation (min/avg/max) = 13.48 | 13.48 | 13.48 Mbytes
   Step          Temp          E_pair         E_mol          TotEng         Press     
    250201   290.65054     -541.08536      706.28209      374.85925     -35819.654    
    250369   290.65054     -559.72471      701.85766      351.79548     -21322.495    
Loop time of 0.0394148 on 1 procs for 168 steps with 243 atoms

100.0% CPU use with 1 MPI tasks x 1 OpenMP threads

Minimization stats:
  Stopping criterion = force tolerance
  Energy initial, next-to-last, final = 
      165.196731222313   142.132956791069   142.132956791071
  Force two-norm initial, final = 230.07572 9.9409354e-11
  Force max component initial, final = 20.453504 1.3312268e-11
  Final line search alpha, max atom move = 1 1.3312268e-11
  Iterations, force evaluations = 168 342

MPI task timing breakdown:
Section |  min time  |  avg time  |  max time  |%varavg| %total
---------------------------------------------------------------
Pair    | 0.024957   | 0.024957   | 0.024957   |   0.0 | 63.32
Bond    | 0.012387   | 0.012387   | 0.012387   |   0.0 | 31.43
Neigh   | 0          | 0          | 0          |   0.0 |  0.00
Comm    | 0.001155   | 0.001155   | 0.001155   |   0.0 |  2.93
Output  | 0          | 0          | 0          |   0.0 |  0.00
Modify  | 0          | 0          | 0          |   0.0 |  0.00
Other   |            | 0.0009158  |            |       |  2.32

Nlocal:            243 ave         243 max         243 min
Histogram: 1 0 0 0 0 0 0 0 0 0
Nghost:           1773 ave        1773 max        1773 min
Histogram: 1 0 0 0 0 0 0 0 0 0
Neighs:          12042 ave       12042 max       12042 min
Histogram: 1 0 0 0 0 0 0 0 0 0

Total # of neighbors = 12042
Ave neighs/atom = 49.555556
Ave special neighs/atom = 8
Neighbor list builds = 0
Dangerous builds = 0

# Obtain new stress tensor

variable tmp equal pe
variable e1 equal ${tmp}
variable e1 equal 142.132956791071
variable tmp equal press
variable p1 equal ${tmp}
variable p1 equal -21322.4947834224
variable tmp equal pxx
variable pxx1 equal ${tmp}
variable pxx1 equal -13339.1120987687
variable tmp equal pyy
variable pyy1 equal ${tmp}
variable pyy1 equal -38519.006397505
variable tmp equal pzz
variable pzz1 equal ${tmp}
variable pzz1 equal -12109.3658539937
variable tmp equal pxy
variable pxy1 equal ${tmp}
variable pxy1 equal 181.478498231866
variable tmp equal pxz
variable pxz1 equal ${tmp}
variable pxz1 equal -1636.60841888559
variable tmp equal pyz
variable pyz1 equal ${tmp}
variable pyz1 equal 2158.79464446479

# Compute elastic constant from pressure tensor

variable C1pos equal ${d1}
variable C1pos equal 67.8253137693474
variable C2pos equal ${d2}
variable C2pos equal 192.800136646128
variable C3pos equal ${d3}
variable C3pos equal 105.435982777108
variable C4pos equal ${d4}
variable C4pos equal -16.0199892002116
variable C5pos equal ${d5}
variable C5pos equal -0.1841217984484
variable C6pos equal ${d6}
variable C6pos equal -0.08262587020525

# Combine positive and negative

variable C1${dir} equal 0.5*(${C1neg}+${C1pos})
variable C12 equal 0.5*(${C1neg}+${C1pos})
variable C12 equal 0.5*(108.632099446367+${C1pos})
variable C12 equal 0.5*(108.632099446367+67.8253137693474)
variable C2${dir} equal 0.5*(${C2neg}+${C2pos})
variable C22 equal 0.5*(${C2neg}+${C2pos})
variable C22 equal 0.5*(241.456772080978+${C2pos})
variable C22 equal 0.5*(241.456772080978+192.800136646128)
variable C3${dir} equal 0.5*(${C3neg}+${C3pos})
variable C32 equal 0.5*(${C3neg}+${C3pos})
variable C32 equal 0.5*(46.4682423561402+${C3pos})
variable C32 equal 0.5*(46.4682423561402+105.435982777108)
variable C4${dir} equal 0.5*(${C4neg}+${C4pos})
variable C42 equal 0.5*(${C4neg}+${C4pos})
variable C42 equal 0.5*(-21.0318888680207+${C4pos})
variable C42 equal 0.5*(-21.0318888680207+-16.0199892002116)
variable C5${dir} equal 0.5*(${C5neg}+${C5pos})
variable C52 equal 0.5*(${C5neg}+${C5pos})
variable C52 equal 0.5*(-0.15042757707825+${C5pos})
variable C52 equal 0.5*(-0.15042757707825+-0.1841217984484)
variable C6${dir} equal 0.5*(${C6neg}+${C6pos})
variable C62 equal 0.5*(${C6neg}+${C6pos})
variable C62 equal 0.5*(0.11932766552814+${C6pos})
variable C62 equal 0.5*(0.11932766552814+-0.08262587020525)

# Delete dir to make sure it is not reused

variable dir delete

# uzz Perturbation

variable dir equal 3
include ./input/displace_333SiO2-1-UFF.mod
if "${dir} == 1" then    "variable len0 equal ${lx0}"
if "${dir} == 2" then    "variable len0 equal ${ly0}"
if "${dir} == 3" then    "variable len0 equal ${lz0}"
variable len0 equal ${lz0}
variable len0 equal 15.7785534379992
if "${dir} == 4" then    "variable len0 equal ${lz0}"
if "${dir} == 5" then    "variable len0 equal ${lz0}"
if "${dir} == 6" then    "variable len0 equal ${ly0}"

# Reset box and simulation parameters

clear
OMP_NUM_THREADS environment is not set. Defaulting to 1 thread.
  using 1 OpenMP thread(s) per MPI task
box tilt large

The 'box' command has been removed and will be ignored

read_restart restart_333SiO2-1-UFF.equil
Reading restart file ...
  restart file = 10 Sep 2025, LAMMPS = 10 Sep 2025
  restoring atom style full from restart
  triclinic box = (0.016752448 0.014535 0.092273281) to (14.674548 12.708504 15.870827) with tilt (-7.3288664 0 0)
WARNING: Triclinic box skew is large. LAMMPS will run inefficiently. (src/domain.cpp:221)
  1 by 1 by 1 MPI processor grid
  restoring pair style lj/cut from restart
  restoring bond style harmonic from restart
  restoring angle style hybrid from restart
  restoring dihedral style harmonic from restart
  243 atoms
  324 bonds
  648 angles
  972 dihedrals
Finding 1-2 1-3 1-4 neighbors ...
  special bond factors lj:    0        0        1       
  special bond factors coul:  0        0        1       
     4 = max # of 1-2 neighbors
     6 = max # of 1-3 neighbors
     8 = max # of special neighbors
  special bonds CPU = 0.000 seconds
  read_restart CPU = 0.001 seconds
include ./input/angles_333SiO2-1-UFF.mod
angle_style hybrid fourier cosine/periodic
angle_coeff 1 fourier 221.735285        0.343737        0.374972        0.281246
angle_coeff 2 cosine/periodic 88.853997              -1               3

# Negative deformation

variable delta equal -${up}*${len0}
variable delta equal -0.02*${len0}
variable delta equal -0.02*15.7785534379992
variable deltaxy equal -${up}*xy
variable deltaxy equal -0.02*xy
variable deltaxz equal -${up}*xz
variable deltaxz equal -0.02*xz
variable deltayz equal -${up}*yz
variable deltayz equal -0.02*yz
if "${dir} == 1" then    "change_box all x delta 0 ${delta} xy delta ${deltaxy} xz delta ${deltaxz} remap units box"
if "${dir} == 2" then    "change_box all y delta 0 ${delta} yz delta ${deltayz} remap units box"
if "${dir} == 3" then    "change_box all z delta 0 ${delta} remap units box"
change_box all z delta 0 ${delta} remap units box
change_box all z delta 0 -0.315571068759984 remap units box
Changing box ...
WARNING: Triclinic box skew is large. LAMMPS will run inefficiently. (src/domain.cpp:221)
  triclinic box = (0.016752448 0.014535 0.092273281) to (14.674548 12.708504 15.555256) with tilt (-7.3288664 0 0)
if "${dir} == 4" then    "change_box all yz delta ${delta} remap units box"
if "${dir} == 5" then    "change_box all xz delta ${delta} remap units box"
if "${dir} == 6" then    "change_box all xy delta ${delta} remap units box"

# Relax atoms positions

minimize ${etol} ${ftol} ${maxiter} ${maxeval}
minimize 0 ${ftol} ${maxiter} ${maxeval}
minimize 0 1e-10 ${maxiter} ${maxeval}
minimize 0 1e-10 100000 ${maxeval}
minimize 0 1e-10 100000 100000
Generated 1 of 1 mixed pair_coeff terms from arithmetic mixing rule
Neighbor list info ...
  update: every = 1 steps, delay = 0 steps, check = yes
  max neighbors/atom: 2000, page size: 100000
  master list distance cutoff = 7
  ghost atom cutoff = 7
  binsize = 3.5, bins = 7 4 5
  1 neighbor lists, perpetual/occasional/extra = 1 0 0
  (1) pair lj/cut, perpetual
      attributes: half, newton on
      pair build: half/bin/newton/tri
      stencil: half/bin/3d/tri
      bin: standard
WARNING: Inconsistent image flags
For more information see https://docs.lammps.org/err0027 (src/domain.cpp:1052)
Per MPI rank memory allocation (min/avg/max) = 13.49 | 13.49 | 13.49 Mbytes
   Step          Temp          E_pair         E_mol          TotEng         Press     
    250201   290.65054     -489.02222      659.89214      380.53245      46949.967    
    250396   290.65054     -454.15119      606.10035      361.61168      35644.17     
Loop time of 0.0464162 on 1 procs for 195 steps with 243 atoms

98.6% CPU use with 1 MPI tasks x 1 OpenMP threads

Minimization stats:
  Stopping criterion = force tolerance
  Energy initial, next-to-last, final = 
      170.869926509874   151.949161187063   151.949161187063
  Force two-norm initial, final = 252.05903 6.2139968e-11
  Force max component initial, final = 18.125263 8.3524299e-12
  Final line search alpha, max atom move = 1 8.3524299e-12
  Iterations, force evaluations = 195 397

MPI task timing breakdown:
Section |  min time  |  avg time  |  max time  |%varavg| %total
---------------------------------------------------------------
Pair    | 0.029652   | 0.029652   | 0.029652   |   0.0 | 63.88
Bond    | 0.014312   | 0.014312   | 0.014312   |   0.0 | 30.83
Neigh   | 0          | 0          | 0          |   0.0 |  0.00
Comm    | 0.0013664  | 0.0013664  | 0.0013664  |   0.0 |  2.94
Output  | 0          | 0          | 0          |   0.0 |  0.00
Modify  | 0          | 0          | 0          |   0.0 |  0.00
Other   |            | 0.001087   |            |       |  2.34

Nlocal:            243 ave         243 max         243 min
Histogram: 1 0 0 0 0 0 0 0 0 0
Nghost:           1815 ave        1815 max        1815 min
Histogram: 1 0 0 0 0 0 0 0 0 0
Neighs:          12630 ave       12630 max       12630 min
Histogram: 1 0 0 0 0 0 0 0 0 0

Total # of neighbors = 12630
Ave neighs/atom = 51.975309
Ave special neighs/atom = 8
Neighbor list builds = 0
Dangerous builds = 0

# Obtain new stress tensor

variable tmp equal pxx
variable pxx1 equal ${tmp}
variable pxx1 equal 20565.714028755
variable tmp equal pyy
variable pyy1 equal ${tmp}
variable pyy1 equal 20382.5859428107
variable tmp equal pzz
variable pzz1 equal ${tmp}
variable pzz1 equal 65984.209516286
variable tmp equal pxy
variable pxy1 equal ${tmp}
variable pxy1 equal 188.922687380028
variable tmp equal pxz
variable pxz1 equal ${tmp}
variable pxz1 equal -1703.57935617542
variable tmp equal pyz
variable pyz1 equal ${tmp}
variable pyz1 equal -1059.76763059697

# Compute elastic constant from pressure tensor

variable C1neg equal ${d1}
variable C1neg equal 101.698816868271
variable C2neg equal ${d2}
variable C2neg equal 101.70782505545
variable C3neg equal ${d3}
variable C3neg equal 285.03189407429
variable C4neg equal ${d4}
variable C4neg equal -0.0728221750972
variable C5neg equal ${d5}
variable C5neg equal -0.150732888000749
variable C6neg equal ${d6}
variable C6neg equal 0.11984681594606

# Reset box and simulation parameters

clear
OMP_NUM_THREADS environment is not set. Defaulting to 1 thread.
  using 1 OpenMP thread(s) per MPI task
box tilt large

The 'box' command has been removed and will be ignored

read_restart restart_333SiO2-1-UFF.equil
Reading restart file ...
  restart file = 10 Sep 2025, LAMMPS = 10 Sep 2025
  restoring atom style full from restart
  triclinic box = (0.016752448 0.014535 0.092273281) to (14.674548 12.708504 15.870827) with tilt (-7.3288664 0 0)
WARNING: Triclinic box skew is large. LAMMPS will run inefficiently. (src/domain.cpp:221)
  1 by 1 by 1 MPI processor grid
  restoring pair style lj/cut from restart
  restoring bond style harmonic from restart
  restoring angle style hybrid from restart
  restoring dihedral style harmonic from restart
  243 atoms
  324 bonds
  648 angles
  972 dihedrals
Finding 1-2 1-3 1-4 neighbors ...
  special bond factors lj:    0        0        1       
  special bond factors coul:  0        0        1       
     4 = max # of 1-2 neighbors
     6 = max # of 1-3 neighbors
     8 = max # of special neighbors
  special bonds CPU = 0.000 seconds
  read_restart CPU = 0.001 seconds
include ./input/angles_333SiO2-1-UFF.mod
angle_style hybrid fourier cosine/periodic
angle_coeff 1 fourier 221.735285        0.343737        0.374972        0.281246
angle_coeff 2 cosine/periodic 88.853997              -1               3

# Positive deformation

variable delta equal ${up}*${len0}
variable delta equal 0.02*${len0}
variable delta equal 0.02*15.7785534379992
variable deltaxy equal ${up}*xy
variable deltaxy equal 0.02*xy
variable deltaxz equal ${up}*xz
variable deltaxz equal 0.02*xz
variable deltayz equal ${up}*yz
variable deltayz equal 0.02*yz
if "${dir} == 1" then    "change_box all x delta 0 ${delta} xy delta ${deltaxy} xz delta ${deltaxz} remap units box"
if "${dir} == 2" then    "change_box all y delta 0 ${delta} yz delta ${deltayz} remap units box"
if "${dir} == 3" then    "change_box all z delta 0 ${delta} remap units box"
change_box all z delta 0 ${delta} remap units box
change_box all z delta 0 0.315571068759984 remap units box
Changing box ...
WARNING: Triclinic box skew is large. LAMMPS will run inefficiently. (src/domain.cpp:221)
  triclinic box = (0.016752448 0.014535 0.092273281) to (14.674548 12.708504 16.186398) with tilt (-7.3288664 0 0)
if "${dir} == 4" then    "change_box all yz delta ${delta} remap units box"
if "${dir} == 5" then    "change_box all xz delta ${delta} remap units box"
if "${dir} == 6" then    "change_box all xy delta ${delta} remap units box"

# Relax atoms positions

minimize ${etol} ${ftol} ${maxiter} ${maxeval}
minimize 0 ${ftol} ${maxiter} ${maxeval}
minimize 0 1e-10 ${maxiter} ${maxeval}
minimize 0 1e-10 100000 ${maxeval}
minimize 0 1e-10 100000 100000
Generated 1 of 1 mixed pair_coeff terms from arithmetic mixing rule
Neighbor list info ...
  update: every = 1 steps, delay = 0 steps, check = yes
  max neighbors/atom: 2000, page size: 100000
  master list distance cutoff = 7
  ghost atom cutoff = 7
  binsize = 3.5, bins = 7 4 5
  1 neighbor lists, perpetual/occasional/extra = 1 0 0
  (1) pair lj/cut, perpetual
      attributes: half, newton on
      pair build: half/bin/newton/tri
      stencil: half/bin/3d/tri
      bin: standard
WARNING: Inconsistent image flags
For more information see https://docs.lammps.org/err0027 (src/domain.cpp:1052)
Per MPI rank memory allocation (min/avg/max) = 13.48 | 13.48 | 13.48 Mbytes
   Step          Temp          E_pair         E_mol          TotEng         Press     
    250201   290.65054     -565.00877      724.98186      369.63561     -39145.342    
    250385   290.65054     -587.7407       738.17445      360.09626     -24409.351    
Loop time of 0.0439687 on 1 procs for 184 steps with 243 atoms

100.0% CPU use with 1 MPI tasks x 1 OpenMP threads

Minimization stats:
  Stopping criterion = force tolerance
  Energy initial, next-to-last, final = 
      159.973086649794    150.43374096377    150.43374096377
  Force two-norm initial, final = 134.43959 7.3551863e-11
  Force max component initial, final = 8.8172451 9.2836017e-12
  Final line search alpha, max atom move = 1 9.2836017e-12
  Iterations, force evaluations = 184 379

MPI task timing breakdown:
Section |  min time  |  avg time  |  max time  |%varavg| %total
---------------------------------------------------------------
Pair    | 0.028096   | 0.028096   | 0.028096   |   0.0 | 63.90
Bond    | 0.01369    | 0.01369    | 0.01369    |   0.0 | 31.14
Neigh   | 0          | 0          | 0          |   0.0 |  0.00
Comm    | 0.0011744  | 0.0011744  | 0.0011744  |   0.0 |  2.67
Output  | 0          | 0          | 0          |   0.0 |  0.00
Modify  | 0          | 0          | 0          |   0.0 |  0.00
Other   |            | 0.001008   |            |       |  2.29

Nlocal:            243 ave         243 max         243 min
Histogram: 1 0 0 0 0 0 0 0 0 0
Nghost:           1724 ave        1724 max        1724 min
Histogram: 1 0 0 0 0 0 0 0 0 0
Neighs:          12312 ave       12312 max       12312 min
Histogram: 1 0 0 0 0 0 0 0 0 0

Total # of neighbors = 12312
Ave neighs/atom = 50.666667
Ave special neighs/atom = 8
Neighbor list builds = 0
Dangerous builds = 0

# Obtain new stress tensor

variable tmp equal pe
variable e1 equal ${tmp}
variable e1 equal 150.43374096377
variable tmp equal press
variable p1 equal ${tmp}
variable p1 equal -24409.3506152644
variable tmp equal pxx
variable pxx1 equal ${tmp}
variable pxx1 equal -10200.4560708114
variable tmp equal pyy
variable pyy1 equal ${tmp}
variable pyy1 equal -10376.1268774321
variable tmp equal pzz
variable pzz1 equal ${tmp}
variable pzz1 equal -52651.4688975497
variable tmp equal pxy
variable pxy1 equal ${tmp}
variable pxy1 equal 181.434358035937
variable tmp equal pxz
variable pxz1 equal ${tmp}
variable pxz1 equal -1636.56796272942
variable tmp equal pyz
variable pyz1 equal ${tmp}
variable pyz1 equal -1017.85405329404

# Compute elastic constant from pressure tensor

variable C1pos equal ${d1}
variable C1pos equal 52.1320336295609
variable C2pos equal ${d2}
variable C2pos equal 52.0857390457635
variable C3pos equal ${d3}
variable C3pos equal 308.146497994888
variable C4pos equal ${d4}
variable C4pos equal -0.136745711417451
variable C5pos equal ${d5}
variable C5pos equal -0.18432407922925
variable C6pos equal ${d6}
variable C6pos equal -0.082405169225605

# Combine positive and negative

variable C1${dir} equal 0.5*(${C1neg}+${C1pos})
variable C13 equal 0.5*(${C1neg}+${C1pos})
variable C13 equal 0.5*(101.698816868271+${C1pos})
variable C13 equal 0.5*(101.698816868271+52.1320336295609)
variable C2${dir} equal 0.5*(${C2neg}+${C2pos})
variable C23 equal 0.5*(${C2neg}+${C2pos})
variable C23 equal 0.5*(101.70782505545+${C2pos})
variable C23 equal 0.5*(101.70782505545+52.0857390457635)
variable C3${dir} equal 0.5*(${C3neg}+${C3pos})
variable C33 equal 0.5*(${C3neg}+${C3pos})
variable C33 equal 0.5*(285.03189407429+${C3pos})
variable C33 equal 0.5*(285.03189407429+308.146497994888)
variable C4${dir} equal 0.5*(${C4neg}+${C4pos})
variable C43 equal 0.5*(${C4neg}+${C4pos})
variable C43 equal 0.5*(-0.0728221750972+${C4pos})
variable C43 equal 0.5*(-0.0728221750972+-0.136745711417451)
variable C5${dir} equal 0.5*(${C5neg}+${C5pos})
variable C53 equal 0.5*(${C5neg}+${C5pos})
variable C53 equal 0.5*(-0.150732888000749+${C5pos})
variable C53 equal 0.5*(-0.150732888000749+-0.18432407922925)
variable C6${dir} equal 0.5*(${C6neg}+${C6pos})
variable C63 equal 0.5*(${C6neg}+${C6pos})
variable C63 equal 0.5*(0.11984681594606+${C6pos})
variable C63 equal 0.5*(0.11984681594606+-0.082405169225605)

# Delete dir to make sure it is not reused

variable dir delete

# uyz Perturbation

variable dir equal 4
include ./input/displace_333SiO2-1-UFF.mod
if "${dir} == 1" then    "variable len0 equal ${lx0}"
if "${dir} == 2" then    "variable len0 equal ${ly0}"
if "${dir} == 3" then    "variable len0 equal ${lz0}"
if "${dir} == 4" then    "variable len0 equal ${lz0}"
variable len0 equal ${lz0}
variable len0 equal 15.7785534379992
if "${dir} == 5" then    "variable len0 equal ${lz0}"
if "${dir} == 6" then    "variable len0 equal ${ly0}"

# Reset box and simulation parameters

clear
OMP_NUM_THREADS environment is not set. Defaulting to 1 thread.
  using 1 OpenMP thread(s) per MPI task
box tilt large

The 'box' command has been removed and will be ignored

read_restart restart_333SiO2-1-UFF.equil
Reading restart file ...
  restart file = 10 Sep 2025, LAMMPS = 10 Sep 2025
  restoring atom style full from restart
  triclinic box = (0.016752448 0.014535 0.092273281) to (14.674548 12.708504 15.870827) with tilt (-7.3288664 0 0)
WARNING: Triclinic box skew is large. LAMMPS will run inefficiently. (src/domain.cpp:221)
  1 by 1 by 1 MPI processor grid
  restoring pair style lj/cut from restart
  restoring bond style harmonic from restart
  restoring angle style hybrid from restart
  restoring dihedral style harmonic from restart
  243 atoms
  324 bonds
  648 angles
  972 dihedrals
Finding 1-2 1-3 1-4 neighbors ...
  special bond factors lj:    0        0        1       
  special bond factors coul:  0        0        1       
     4 = max # of 1-2 neighbors
     6 = max # of 1-3 neighbors
     8 = max # of special neighbors
  special bonds CPU = 0.000 seconds
  read_restart CPU = 0.001 seconds
include ./input/angles_333SiO2-1-UFF.mod
angle_style hybrid fourier cosine/periodic
angle_coeff 1 fourier 221.735285        0.343737        0.374972        0.281246
angle_coeff 2 cosine/periodic 88.853997              -1               3

# Negative deformation

variable delta equal -${up}*${len0}
variable delta equal -0.02*${len0}
variable delta equal -0.02*15.7785534379992
variable deltaxy equal -${up}*xy
variable deltaxy equal -0.02*xy
variable deltaxz equal -${up}*xz
variable deltaxz equal -0.02*xz
variable deltayz equal -${up}*yz
variable deltayz equal -0.02*yz
if "${dir} == 1" then    "change_box all x delta 0 ${delta} xy delta ${deltaxy} xz delta ${deltaxz} remap units box"
if "${dir} == 2" then    "change_box all y delta 0 ${delta} yz delta ${deltayz} remap units box"
if "${dir} == 3" then    "change_box all z delta 0 ${delta} remap units box"
if "${dir} == 4" then    "change_box all yz delta ${delta} remap units box"
change_box all yz delta ${delta} remap units box
change_box all yz delta -0.315571068759984 remap units box
Changing box ...
WARNING: Triclinic box skew is large. LAMMPS will run inefficiently. (src/domain.cpp:221)
  triclinic box = (0.016752448 0.014535 0.092273281) to (14.674548 12.708504 15.870827) with tilt (-7.3288664 0 -0.31557107)
if "${dir} == 5" then    "change_box all xz delta ${delta} remap units box"
if "${dir} == 6" then    "change_box all xy delta ${delta} remap units box"

# Relax atoms positions

minimize ${etol} ${ftol} ${maxiter} ${maxeval}
minimize 0 ${ftol} ${maxiter} ${maxeval}
minimize 0 1e-10 ${maxiter} ${maxeval}
minimize 0 1e-10 100000 ${maxeval}
minimize 0 1e-10 100000 100000
Generated 1 of 1 mixed pair_coeff terms from arithmetic mixing rule
Neighbor list info ...
  update: every = 1 steps, delay = 0 steps, check = yes
  max neighbors/atom: 2000, page size: 100000
  master list distance cutoff = 7
  ghost atom cutoff = 7
  binsize = 3.5, bins = 7 4 5
  1 neighbor lists, perpetual/occasional/extra = 1 0 0
  (1) pair lj/cut, perpetual
      attributes: half, newton on
      pair build: half/bin/newton/tri
      stencil: half/bin/3d/tri
      bin: standard
WARNING: Inconsistent image flags
For more information see https://docs.lammps.org/err0027 (src/domain.cpp:1052)
Per MPI rank memory allocation (min/avg/max) = 13.48 | 13.48 | 13.48 Mbytes
   Step          Temp          E_pair         E_mol          TotEng         Press     
    250201   290.65054     -533.03011      674.09241      350.72482      2641.9349    
    250205   290.65054     -529.56346      665.41267      345.51173      3037.1791    
Loop time of 0.00799097 on 1 procs for 4 steps with 243 atoms

96.0% CPU use with 1 MPI tasks x 1 OpenMP threads

Minimization stats:
  Stopping criterion = linesearch alpha is zero
  Energy initial, next-to-last, final = 
      141.062301255942   135.849209935296   135.849209935296
  Force two-norm initial, final = 138.05127 17.752283
  Force max component initial, final = 12.143488 1.4636432
  Final line search alpha, max atom move = 3.1815219e-11 4.6566129e-11
  Iterations, force evaluations = 4 67

MPI task timing breakdown:
Section |  min time  |  avg time  |  max time  |%varavg| %total
---------------------------------------------------------------
Pair    | 0.0051671  | 0.0051671  | 0.0051671  |   0.0 | 64.66
Bond    | 0.002451   | 0.002451   | 0.002451   |   0.0 | 30.67
Neigh   | 0          | 0          | 0          |   0.0 |  0.00
Comm    | 0.00023157 | 0.00023157 | 0.00023157 |   0.0 |  2.90
Output  | 0          | 0          | 0          |   0.0 |  0.00
Modify  | 0          | 0          | 0          |   0.0 |  0.00
Other   |            | 0.0001413  |            |       |  1.77

Nlocal:            243 ave         243 max         243 min
Histogram: 1 0 0 0 0 0 0 0 0 0
Nghost:           1773 ave        1773 max        1773 min
Histogram: 1 0 0 0 0 0 0 0 0 0
Neighs:          12385 ave       12385 max       12385 min
Histogram: 1 0 0 0 0 0 0 0 0 0

Total # of neighbors = 12385
Ave neighs/atom = 50.967078
Ave special neighs/atom = 8
Neighbor list builds = 0
Dangerous builds = 0

# Obtain new stress tensor

variable tmp equal pxx
variable pxx1 equal ${tmp}
variable pxx1 equal 7604.24826924799
variable tmp equal pyy
variable pyy1 equal ${tmp}
variable pyy1 equal -1868.56223805916
variable tmp equal pzz
variable pzz1 equal ${tmp}
variable pzz1 equal 3375.85126043405
variable tmp equal pxy
variable pxy1 equal ${tmp}
variable pxy1 equal 180.419813558689
variable tmp equal pxz
variable pxz1 equal ${tmp}
variable pxz1 equal -1668.07810953566
variable tmp equal pyz
variable pyz1 equal ${tmp}
variable pyz1 equal 24219.4056086142

# Compute elastic constant from pressure tensor

variable C1neg equal ${d1}
variable C1neg equal 36.891488070736
variable C2neg equal ${d2}
variable C2neg equal -9.54791584889882
variable C3neg equal ${d3}
variable C3neg equal -28.0098972049696
variable C4neg equal ${d4}
variable C4neg equal 126.323044020959
variable C5neg equal ${d5}
variable C5neg equal 0.0267733451980507
variable C6neg equal ${d6}
variable C6neg equal 0.0773324468393649

# Reset box and simulation parameters

clear
OMP_NUM_THREADS environment is not set. Defaulting to 1 thread.
  using 1 OpenMP thread(s) per MPI task
box tilt large

The 'box' command has been removed and will be ignored

read_restart restart_333SiO2-1-UFF.equil
Reading restart file ...
  restart file = 10 Sep 2025, LAMMPS = 10 Sep 2025
  restoring atom style full from restart
  triclinic box = (0.016752448 0.014535 0.092273281) to (14.674548 12.708504 15.870827) with tilt (-7.3288664 0 0)
WARNING: Triclinic box skew is large. LAMMPS will run inefficiently. (src/domain.cpp:221)
  1 by 1 by 1 MPI processor grid
  restoring pair style lj/cut from restart
  restoring bond style harmonic from restart
  restoring angle style hybrid from restart
  restoring dihedral style harmonic from restart
  243 atoms
  324 bonds
  648 angles
  972 dihedrals
Finding 1-2 1-3 1-4 neighbors ...
  special bond factors lj:    0        0        1       
  special bond factors coul:  0        0        1       
     4 = max # of 1-2 neighbors
     6 = max # of 1-3 neighbors
     8 = max # of special neighbors
  special bonds CPU = 0.000 seconds
  read_restart CPU = 0.001 seconds
include ./input/angles_333SiO2-1-UFF.mod
angle_style hybrid fourier cosine/periodic
angle_coeff 1 fourier 221.735285        0.343737        0.374972        0.281246
angle_coeff 2 cosine/periodic 88.853997              -1               3

# Positive deformation

variable delta equal ${up}*${len0}
variable delta equal 0.02*${len0}
variable delta equal 0.02*15.7785534379992
variable deltaxy equal ${up}*xy
variable deltaxy equal 0.02*xy
variable deltaxz equal ${up}*xz
variable deltaxz equal 0.02*xz
variable deltayz equal ${up}*yz
variable deltayz equal 0.02*yz
if "${dir} == 1" then    "change_box all x delta 0 ${delta} xy delta ${deltaxy} xz delta ${deltaxz} remap units box"
if "${dir} == 2" then    "change_box all y delta 0 ${delta} yz delta ${deltayz} remap units box"
if "${dir} == 3" then    "change_box all z delta 0 ${delta} remap units box"
if "${dir} == 4" then    "change_box all yz delta ${delta} remap units box"
change_box all yz delta ${delta} remap units box
change_box all yz delta 0.315571068759984 remap units box
Changing box ...
WARNING: Triclinic box skew is large. LAMMPS will run inefficiently. (src/domain.cpp:221)
  triclinic box = (0.016752448 0.014535 0.092273281) to (14.674548 12.708504 15.870827) with tilt (-7.3288664 0 0.31557107)
if "${dir} == 5" then    "change_box all xz delta ${delta} remap units box"
if "${dir} == 6" then    "change_box all xy delta ${delta} remap units box"

# Relax atoms positions

minimize ${etol} ${ftol} ${maxiter} ${maxeval}
minimize 0 ${ftol} ${maxiter} ${maxeval}
minimize 0 1e-10 ${maxiter} ${maxeval}
minimize 0 1e-10 100000 ${maxeval}
minimize 0 1e-10 100000 100000
Generated 1 of 1 mixed pair_coeff terms from arithmetic mixing rule
Neighbor list info ...
  update: every = 1 steps, delay = 0 steps, check = yes
  max neighbors/atom: 2000, page size: 100000
  master list distance cutoff = 7
  ghost atom cutoff = 7
  binsize = 3.5, bins = 7 4 5
  1 neighbor lists, perpetual/occasional/extra = 1 0 0
  (1) pair lj/cut, perpetual
      attributes: half, newton on
      pair build: half/bin/newton/tri
      stencil: half/bin/3d/tri
      bin: standard
WARNING: Inconsistent image flags
For more information see https://docs.lammps.org/err0027 (src/domain.cpp:1052)
Per MPI rank memory allocation (min/avg/max) = 13.48 | 13.48 | 13.48 Mbytes
   Step          Temp          E_pair         E_mol          TotEng         Press     
    250201   290.65054     -523.01403      674.12482      360.77331      3015.7059    
    250205   290.65054     -522.1683       664.94315      352.43737      3323.2502    
Loop time of 0.00777248 on 1 procs for 4 steps with 243 atoms

100.0% CPU use with 1 MPI tasks x 1 OpenMP threads

Minimization stats:
  Stopping criterion = linesearch alpha is zero
  Energy initial, next-to-last, final = 
      151.110787435447   142.774848441533   142.774848441533
  Force two-norm initial, final = 138.53681 10.462253
  Force max component initial, final = 11.703431 0.8190883
  Final line search alpha, max atom move = 8.7984884e-11 7.206739e-11
  Iterations, force evaluations = 4 66

MPI task timing breakdown:
Section |  min time  |  avg time  |  max time  |%varavg| %total
---------------------------------------------------------------
Pair    | 0.0050166  | 0.0050166  | 0.0050166  |   0.0 | 64.54
Bond    | 0.0023983  | 0.0023983  | 0.0023983  |   0.0 | 30.86
Neigh   | 0          | 0          | 0          |   0.0 |  0.00
Comm    | 0.00023409 | 0.00023409 | 0.00023409 |   0.0 |  3.01
Output  | 0          | 0          | 0          |   0.0 |  0.00
Modify  | 0          | 0          | 0          |   0.0 |  0.00
Other   |            | 0.0001235  |            |       |  1.59

Nlocal:            243 ave         243 max         243 min
Histogram: 1 0 0 0 0 0 0 0 0 0
Nghost:           1773 ave        1773 max        1773 min
Histogram: 1 0 0 0 0 0 0 0 0 0
Neighs:          12543 ave       12543 max       12543 min
Histogram: 1 0 0 0 0 0 0 0 0 0

Total # of neighbors = 12543
Ave neighs/atom = 51.617284
Ave special neighs/atom = 8
Neighbor list builds = 0
Dangerous builds = 0

# Obtain new stress tensor

variable tmp equal pe
variable e1 equal ${tmp}
variable e1 equal 142.774848441533
variable tmp equal press
variable p1 equal ${tmp}
variable p1 equal 3323.2502402856
variable tmp equal pxx
variable pxx1 equal ${tmp}
variable pxx1 equal -1396.84620719931
variable tmp equal pyy
variable pyy1 equal ${tmp}
variable pyy1 equal 8366.40057185997
variable tmp equal pzz
variable pzz1 equal ${tmp}
variable pzz1 equal 3000.19635619615
variable tmp equal pxy
variable pxy1 equal ${tmp}
variable pxy1 equal 152.558624310483
variable tmp equal pxz
variable pxz1 equal ${tmp}
variable pxz1 equal -1664.66158605371
variable tmp equal pyz
variable pyz1 equal ${tmp}
variable pyz1 equal -26362.3372609191

# Compute elastic constant from pressure tensor

variable C1pos equal ${d1}
variable C1pos equal 8.11398431150048
variable C2pos equal ${d2}
variable C2pos equal -41.6268982006968
variable C3pos equal ${d3}
variable C3pos equal 29.8881717261591
variable C4pos equal ${d4}
variable C4pos equal 126.585670326708
variable C5pos equal ${d5}
variable C5pos equal -0.0438559626078006
variable C6pos equal ${d6}
variable C6pos equal 0.061973499401665

# Combine positive and negative

variable C1${dir} equal 0.5*(${C1neg}+${C1pos})
variable C14 equal 0.5*(${C1neg}+${C1pos})
variable C14 equal 0.5*(36.891488070736+${C1pos})
variable C14 equal 0.5*(36.891488070736+8.11398431150048)
variable C2${dir} equal 0.5*(${C2neg}+${C2pos})
variable C24 equal 0.5*(${C2neg}+${C2pos})
variable C24 equal 0.5*(-9.54791584889882+${C2pos})
variable C24 equal 0.5*(-9.54791584889882+-41.6268982006968)
variable C3${dir} equal 0.5*(${C3neg}+${C3pos})
variable C34 equal 0.5*(${C3neg}+${C3pos})
variable C34 equal 0.5*(-28.0098972049696+${C3pos})
variable C34 equal 0.5*(-28.0098972049696+29.8881717261591)
variable C4${dir} equal 0.5*(${C4neg}+${C4pos})
variable C44 equal 0.5*(${C4neg}+${C4pos})
variable C44 equal 0.5*(126.323044020959+${C4pos})
variable C44 equal 0.5*(126.323044020959+126.585670326708)
variable C5${dir} equal 0.5*(${C5neg}+${C5pos})
variable C54 equal 0.5*(${C5neg}+${C5pos})
variable C54 equal 0.5*(0.0267733451980507+${C5pos})
variable C54 equal 0.5*(0.0267733451980507+-0.0438559626078006)
variable C6${dir} equal 0.5*(${C6neg}+${C6pos})
variable C64 equal 0.5*(${C6neg}+${C6pos})
variable C64 equal 0.5*(0.0773324468393649+${C6pos})
variable C64 equal 0.5*(0.0773324468393649+0.061973499401665)

# Delete dir to make sure it is not reused

variable dir delete

# uxz Perturbation

variable dir equal 5
include ./input/displace_333SiO2-1-UFF.mod
if "${dir} == 1" then    "variable len0 equal ${lx0}"
if "${dir} == 2" then    "variable len0 equal ${ly0}"
if "${dir} == 3" then    "variable len0 equal ${lz0}"
if "${dir} == 4" then    "variable len0 equal ${lz0}"
if "${dir} == 5" then    "variable len0 equal ${lz0}"
variable len0 equal ${lz0}
variable len0 equal 15.7785534379992
if "${dir} == 6" then    "variable len0 equal ${ly0}"

# Reset box and simulation parameters

clear
OMP_NUM_THREADS environment is not set. Defaulting to 1 thread.
  using 1 OpenMP thread(s) per MPI task
box tilt large

The 'box' command has been removed and will be ignored

read_restart restart_333SiO2-1-UFF.equil
Reading restart file ...
  restart file = 10 Sep 2025, LAMMPS = 10 Sep 2025
  restoring atom style full from restart
  triclinic box = (0.016752448 0.014535 0.092273281) to (14.674548 12.708504 15.870827) with tilt (-7.3288664 0 0)
WARNING: Triclinic box skew is large. LAMMPS will run inefficiently. (src/domain.cpp:221)
  1 by 1 by 1 MPI processor grid
  restoring pair style lj/cut from restart
  restoring bond style harmonic from restart
  restoring angle style hybrid from restart
  restoring dihedral style harmonic from restart
  243 atoms
  324 bonds
  648 angles
  972 dihedrals
Finding 1-2 1-3 1-4 neighbors ...
  special bond factors lj:    0        0        1       
  special bond factors coul:  0        0        1       
     4 = max # of 1-2 neighbors
     6 = max # of 1-3 neighbors
     8 = max # of special neighbors
  special bonds CPU = 0.000 seconds
  read_restart CPU = 0.000 seconds
include ./input/angles_333SiO2-1-UFF.mod
angle_style hybrid fourier cosine/periodic
angle_coeff 1 fourier 221.735285        0.343737        0.374972        0.281246
angle_coeff 2 cosine/periodic 88.853997              -1               3

# Negative deformation

variable delta equal -${up}*${len0}
variable delta equal -0.02*${len0}
variable delta equal -0.02*15.7785534379992
variable deltaxy equal -${up}*xy
variable deltaxy equal -0.02*xy
variable deltaxz equal -${up}*xz
variable deltaxz equal -0.02*xz
variable deltayz equal -${up}*yz
variable deltayz equal -0.02*yz
if "${dir} == 1" then    "change_box all x delta 0 ${delta} xy delta ${deltaxy} xz delta ${deltaxz} remap units box"
if "${dir} == 2" then    "change_box all y delta 0 ${delta} yz delta ${deltayz} remap units box"
if "${dir} == 3" then    "change_box all z delta 0 ${delta} remap units box"
if "${dir} == 4" then    "change_box all yz delta ${delta} remap units box"
if "${dir} == 5" then    "change_box all xz delta ${delta} remap units box"
change_box all xz delta ${delta} remap units box
change_box all xz delta -0.315571068759984 remap units box
Changing box ...
WARNING: Triclinic box skew is large. LAMMPS will run inefficiently. (src/domain.cpp:221)
  triclinic box = (0.016752448 0.014535 0.092273281) to (14.674548 12.708504 15.870827) with tilt (-7.3288664 -0.31557107 0)
if "${dir} == 6" then    "change_box all xy delta ${delta} remap units box"

# Relax atoms positions

minimize ${etol} ${ftol} ${maxiter} ${maxeval}
minimize 0 ${ftol} ${maxiter} ${maxeval}
minimize 0 1e-10 ${maxiter} ${maxeval}
minimize 0 1e-10 100000 ${maxeval}
minimize 0 1e-10 100000 100000
Generated 1 of 1 mixed pair_coeff terms from arithmetic mixing rule
Neighbor list info ...
  update: every = 1 steps, delay = 0 steps, check = yes
  max neighbors/atom: 2000, page size: 100000
  master list distance cutoff = 7
  ghost atom cutoff = 7
  binsize = 3.5, bins = 7 4 5
  1 neighbor lists, perpetual/occasional/extra = 1 0 0
  (1) pair lj/cut, perpetual
      attributes: half, newton on
      pair build: half/bin/newton/tri
      stencil: half/bin/3d/tri
      bin: standard
WARNING: Inconsistent image flags
For more information see https://docs.lammps.org/err0027 (src/domain.cpp:1052)
Per MPI rank memory allocation (min/avg/max) = 13.48 | 13.48 | 13.48 Mbytes
   Step          Temp          E_pair         E_mol          TotEng         Press     
    250201   290.65054     -531.39774      674.10274      352.36752      2708.9653    
    250202   290.65054     -531.39774      674.10274      352.36752      2708.9653    
Loop time of 0.00800381 on 1 procs for 1 steps with 243 atoms

100.0% CPU use with 1 MPI tasks x 1 OpenMP threads

Minimization stats:
  Stopping criterion = linesearch alpha is zero
  Energy initial, next-to-last, final = 
       142.70499559671    142.70499559671    142.70499559671
  Force two-norm initial, final = 138.03732 138.03732
  Force max component initial, final = 10.671426 10.671426
  Final line search alpha, max atom move = 5.4545342e-13 5.8207661e-12
  Iterations, force evaluations = 1 67

MPI task timing breakdown:
Section |  min time  |  avg time  |  max time  |%varavg| %total
---------------------------------------------------------------
Pair    | 0.0052054  | 0.0052054  | 0.0052054  |   0.0 | 65.04
Bond    | 0.002445   | 0.002445   | 0.002445   |   0.0 | 30.55
Neigh   | 0          | 0          | 0          |   0.0 |  0.00
Comm    | 0.00023492 | 0.00023492 | 0.00023492 |   0.0 |  2.94
Output  | 0          | 0          | 0          |   0.0 |  0.00
Modify  | 0          | 0          | 0          |   0.0 |  0.00
Other   |            | 0.0001184  |            |       |  1.48

Nlocal:            243 ave         243 max         243 min
Histogram: 1 0 0 0 0 0 0 0 0 0
Nghost:           1773 ave        1773 max        1773 min
Histogram: 1 0 0 0 0 0 0 0 0 0
Neighs:          12473 ave       12473 max       12473 min
Histogram: 1 0 0 0 0 0 0 0 0 0

Total # of neighbors = 12473
Ave neighs/atom = 51.329218
Ave special neighs/atom = 8
Neighbor list builds = 0
Dangerous builds = 0

# Obtain new stress tensor

variable tmp equal pxx
variable pxx1 equal ${tmp}
variable pxx1 equal -792.593549381339
variable tmp equal pyy
variable pyy1 equal ${tmp}
variable pyy1 equal 53.5777398297183
variable tmp equal pzz
variable pzz1 equal ${tmp}
variable pzz1 equal 8865.91166776193
variable tmp equal pxy
variable pxy1 equal ${tmp}
variable pxy1 equal 4607.42577667191
variable tmp equal pxz
variable pxz1 equal ${tmp}
variable pxz1 equal 35754.2872687628
variable tmp equal pyz
variable pyz1 equal ${tmp}
variable pyz1 equal -898.886721047603

# Compute elastic constant from pressure tensor

variable C1neg equal ${d1}
variable C1neg equal -5.09272102241063
variable C2neg equal ${d2}
variable C2neg equal 0.062784040545568
variable C3neg equal ${d3}
variable C3neg equal -0.559595168330152
variable C4neg equal ${d4}
variable C4neg equal 0.731582372649635
variable C5neg equal ${d5}
variable C5neg equal 187.13860023669
variable C6neg equal ${d6}
variable C6neg equal 22.2123622624055

# Reset box and simulation parameters

clear
OMP_NUM_THREADS environment is not set. Defaulting to 1 thread.
  using 1 OpenMP thread(s) per MPI task
box tilt large

The 'box' command has been removed and will be ignored

read_restart restart_333SiO2-1-UFF.equil
Reading restart file ...
  restart file = 10 Sep 2025, LAMMPS = 10 Sep 2025
  restoring atom style full from restart
  triclinic box = (0.016752448 0.014535 0.092273281) to (14.674548 12.708504 15.870827) with tilt (-7.3288664 0 0)
WARNING: Triclinic box skew is large. LAMMPS will run inefficiently. (src/domain.cpp:221)
  1 by 1 by 1 MPI processor grid
  restoring pair style lj/cut from restart
  restoring bond style harmonic from restart
  restoring angle style hybrid from restart
  restoring dihedral style harmonic from restart
  243 atoms
  324 bonds
  648 angles
  972 dihedrals
Finding 1-2 1-3 1-4 neighbors ...
  special bond factors lj:    0        0        1       
  special bond factors coul:  0        0        1       
     4 = max # of 1-2 neighbors
     6 = max # of 1-3 neighbors
     8 = max # of special neighbors
  special bonds CPU = 0.000 seconds
  read_restart CPU = 0.001 seconds
include ./input/angles_333SiO2-1-UFF.mod
angle_style hybrid fourier cosine/periodic
angle_coeff 1 fourier 221.735285        0.343737        0.374972        0.281246
angle_coeff 2 cosine/periodic 88.853997              -1               3

# Positive deformation

variable delta equal ${up}*${len0}
variable delta equal 0.02*${len0}
variable delta equal 0.02*15.7785534379992
variable deltaxy equal ${up}*xy
variable deltaxy equal 0.02*xy
variable deltaxz equal ${up}*xz
variable deltaxz equal 0.02*xz
variable deltayz equal ${up}*yz
variable deltayz equal 0.02*yz
if "${dir} == 1" then    "change_box all x delta 0 ${delta} xy delta ${deltaxy} xz delta ${deltaxz} remap units box"
if "${dir} == 2" then    "change_box all y delta 0 ${delta} yz delta ${deltayz} remap units box"
if "${dir} == 3" then    "change_box all z delta 0 ${delta} remap units box"
if "${dir} == 4" then    "change_box all yz delta ${delta} remap units box"
if "${dir} == 5" then    "change_box all xz delta ${delta} remap units box"
change_box all xz delta ${delta} remap units box
change_box all xz delta 0.315571068759984 remap units box
Changing box ...
WARNING: Triclinic box skew is large. LAMMPS will run inefficiently. (src/domain.cpp:221)
  triclinic box = (0.016752448 0.014535 0.092273281) to (14.674548 12.708504 15.870827) with tilt (-7.3288664 0.31557107 0)
if "${dir} == 6" then    "change_box all xy delta ${delta} remap units box"

# Relax atoms positions

minimize ${etol} ${ftol} ${maxiter} ${maxeval}
minimize 0 ${ftol} ${maxiter} ${maxeval}
minimize 0 1e-10 ${maxiter} ${maxeval}
minimize 0 1e-10 100000 ${maxeval}
minimize 0 1e-10 100000 100000
Generated 1 of 1 mixed pair_coeff terms from arithmetic mixing rule
Neighbor list info ...
  update: every = 1 steps, delay = 0 steps, check = yes
  max neighbors/atom: 2000, page size: 100000
  master list distance cutoff = 7
  ghost atom cutoff = 7
  binsize = 3.5, bins = 7 4 5
  1 neighbor lists, perpetual/occasional/extra = 1 0 0
  (1) pair lj/cut, perpetual
      attributes: half, newton on
      pair build: half/bin/newton/tri
      stencil: half/bin/3d/tri
      bin: standard
WARNING: Inconsistent image flags
For more information see https://docs.lammps.org/err0027 (src/domain.cpp:1052)
Per MPI rank memory allocation (min/avg/max) = 13.48 | 13.48 | 13.48 Mbytes
   Step          Temp          E_pair         E_mol          TotEng         Press     
    250201   290.65054     -531.2447       674.11401      352.53183      2713.3931    
    250202   290.65054     -531.2447       674.11401      352.53183      2713.3931    
Loop time of 0.00789547 on 1 procs for 1 steps with 243 atoms

100.0% CPU use with 1 MPI tasks x 1 OpenMP threads

Minimization stats:
  Stopping criterion = linesearch alpha is zero
  Energy initial, next-to-last, final = 
      142.869307498735   142.869307498735   142.869307498736
  Force two-norm initial, final = 138.06957 138.06957
  Force max component initial, final = 10.859894 10.859894
  Final line search alpha, max atom move = 5.3598738e-13 5.8207661e-12
  Iterations, force evaluations = 1 67

MPI task timing breakdown:
Section |  min time  |  avg time  |  max time  |%varavg| %total
---------------------------------------------------------------
Pair    | 0.0050862  | 0.0050862  | 0.0050862  |   0.0 | 64.42
Bond    | 0.002445   | 0.002445   | 0.002445   |   0.0 | 30.97
Neigh   | 0          | 0          | 0          |   0.0 |  0.00
Comm    | 0.00023227 | 0.00023227 | 0.00023227 |   0.0 |  2.94
Output  | 0          | 0          | 0          |   0.0 |  0.00
Modify  | 0          | 0          | 0          |   0.0 |  0.00
Other   |            | 0.000132   |            |       |  1.67

Nlocal:            243 ave         243 max         243 min
Histogram: 1 0 0 0 0 0 0 0 0 0
Nghost:           1773 ave        1773 max        1773 min
Histogram: 1 0 0 0 0 0 0 0 0 0
Neighs:          12468 ave       12468 max       12468 min
Histogram: 1 0 0 0 0 0 0 0 0 0

Total # of neighbors = 12468
Ave neighs/atom = 51.308642
Ave special neighs/atom = 8
Neighbor list builds = 0
Dangerous builds = 0

# Obtain new stress tensor

variable tmp equal pe
variable e1 equal ${tmp}
variable e1 equal 142.869307498736
variable tmp equal press
variable p1 equal ${tmp}
variable p1 equal 2713.39312307053
variable tmp equal pxx
variable pxx1 equal ${tmp}
variable pxx1 equal -780.509300831231
variable tmp equal pyy
variable pyy1 equal ${tmp}
variable pyy1 equal 57.4659983005836
variable tmp equal pzz
variable pzz1 equal ${tmp}
variable pzz1 equal 8863.22267174225
variable tmp equal pxy
variable pxy1 equal ${tmp}
variable pxy1 equal -4289.8741944726
variable tmp equal pxz
variable pxz1 equal ${tmp}
variable pxz1 equal -39089.7952499856
variable tmp equal pyz
variable pyz1 equal ${tmp}
variable pyz1 equal -901.864120803837

# Compute elastic constant from pressure tensor

variable C1pos equal ${d1}
variable C1pos equal 5.03229977966009
variable C2pos equal ${d2}
variable C2pos equal -0.0822253328998945
variable C3pos equal ${d3}
variable C3pos equal 0.573040148428545
variable C4pos equal ${d4}
variable C4pos equal -0.716695373868466
variable C5pos equal ${d5}
variable C5pos equal 187.081812357052
variable C6pos equal ${d6}
variable C6pos equal 22.2741375933171

# Combine positive and negative

variable C1${dir} equal 0.5*(${C1neg}+${C1pos})
variable C15 equal 0.5*(${C1neg}+${C1pos})
variable C15 equal 0.5*(-5.09272102241063+${C1pos})
variable C15 equal 0.5*(-5.09272102241063+5.03229977966009)
variable C2${dir} equal 0.5*(${C2neg}+${C2pos})
variable C25 equal 0.5*(${C2neg}+${C2pos})
variable C25 equal 0.5*(0.062784040545568+${C2pos})
variable C25 equal 0.5*(0.062784040545568+-0.0822253328998945)
variable C3${dir} equal 0.5*(${C3neg}+${C3pos})
variable C35 equal 0.5*(${C3neg}+${C3pos})
variable C35 equal 0.5*(-0.559595168330152+${C3pos})
variable C35 equal 0.5*(-0.559595168330152+0.573040148428545)
variable C4${dir} equal 0.5*(${C4neg}+${C4pos})
variable C45 equal 0.5*(${C4neg}+${C4pos})
variable C45 equal 0.5*(0.731582372649635+${C4pos})
variable C45 equal 0.5*(0.731582372649635+-0.716695373868466)
variable C5${dir} equal 0.5*(${C5neg}+${C5pos})
variable C55 equal 0.5*(${C5neg}+${C5pos})
variable C55 equal 0.5*(187.13860023669+${C5pos})
variable C55 equal 0.5*(187.13860023669+187.081812357052)
variable C6${dir} equal 0.5*(${C6neg}+${C6pos})
variable C65 equal 0.5*(${C6neg}+${C6pos})
variable C65 equal 0.5*(22.2123622624055+${C6pos})
variable C65 equal 0.5*(22.2123622624055+22.2741375933171)

# Delete dir to make sure it is not reused

variable dir delete

# uxy Perturbation

variable dir equal 6
include ./input/displace_333SiO2-1-UFF.mod
if "${dir} == 1" then    "variable len0 equal ${lx0}"
if "${dir} == 2" then    "variable len0 equal ${ly0}"
if "${dir} == 3" then    "variable len0 equal ${lz0}"
if "${dir} == 4" then    "variable len0 equal ${lz0}"
if "${dir} == 5" then    "variable len0 equal ${lz0}"
if "${dir} == 6" then    "variable len0 equal ${ly0}"
variable len0 equal ${ly0}
variable len0 equal 12.6939689999267

# Reset box and simulation parameters

clear
OMP_NUM_THREADS environment is not set. Defaulting to 1 thread.
  using 1 OpenMP thread(s) per MPI task
box tilt large

The 'box' command has been removed and will be ignored

read_restart restart_333SiO2-1-UFF.equil
Reading restart file ...
  restart file = 10 Sep 2025, LAMMPS = 10 Sep 2025
  restoring atom style full from restart
  triclinic box = (0.016752448 0.014535 0.092273281) to (14.674548 12.708504 15.870827) with tilt (-7.3288664 0 0)
WARNING: Triclinic box skew is large. LAMMPS will run inefficiently. (src/domain.cpp:221)
  1 by 1 by 1 MPI processor grid
  restoring pair style lj/cut from restart
  restoring bond style harmonic from restart
  restoring angle style hybrid from restart
  restoring dihedral style harmonic from restart
  243 atoms
  324 bonds
  648 angles
  972 dihedrals
Finding 1-2 1-3 1-4 neighbors ...
  special bond factors lj:    0        0        1       
  special bond factors coul:  0        0        1       
     4 = max # of 1-2 neighbors
     6 = max # of 1-3 neighbors
     8 = max # of special neighbors
  special bonds CPU = 0.000 seconds
  read_restart CPU = 0.001 seconds
include ./input/angles_333SiO2-1-UFF.mod
angle_style hybrid fourier cosine/periodic
angle_coeff 1 fourier 221.735285        0.343737        0.374972        0.281246
angle_coeff 2 cosine/periodic 88.853997              -1               3

# Negative deformation

variable delta equal -${up}*${len0}
variable delta equal -0.02*${len0}
variable delta equal -0.02*12.6939689999267
variable deltaxy equal -${up}*xy
variable deltaxy equal -0.02*xy
variable deltaxz equal -${up}*xz
variable deltaxz equal -0.02*xz
variable deltayz equal -${up}*yz
variable deltayz equal -0.02*yz
if "${dir} == 1" then    "change_box all x delta 0 ${delta} xy delta ${deltaxy} xz delta ${deltaxz} remap units box"
if "${dir} == 2" then    "change_box all y delta 0 ${delta} yz delta ${deltayz} remap units box"
if "${dir} == 3" then    "change_box all z delta 0 ${delta} remap units box"
if "${dir} == 4" then    "change_box all yz delta ${delta} remap units box"
if "${dir} == 5" then    "change_box all xz delta ${delta} remap units box"
if "${dir} == 6" then    "change_box all xy delta ${delta} remap units box"
change_box all xy delta ${delta} remap units box
change_box all xy delta -0.253879379998534 remap units box
Changing box ...
WARNING: Triclinic box skew is large. LAMMPS will run inefficiently. (src/domain.cpp:221)
  triclinic box = (0.016752448 0.014535 0.092273281) to (14.674548 12.708504 15.870827) with tilt (-7.5827458 0 0)

# Relax atoms positions

minimize ${etol} ${ftol} ${maxiter} ${maxeval}
minimize 0 ${ftol} ${maxiter} ${maxeval}
minimize 0 1e-10 ${maxiter} ${maxeval}
minimize 0 1e-10 100000 ${maxeval}
minimize 0 1e-10 100000 100000
Generated 1 of 1 mixed pair_coeff terms from arithmetic mixing rule
Neighbor list info ...
  update: every = 1 steps, delay = 0 steps, check = yes
  max neighbors/atom: 2000, page size: 100000
  master list distance cutoff = 7
  ghost atom cutoff = 7
  binsize = 3.5, bins = 7 4 5
  1 neighbor lists, perpetual/occasional/extra = 1 0 0
  (1) pair lj/cut, perpetual
      attributes: half, newton on
      pair build: half/bin/newton/tri
      stencil: half/bin/3d/tri
      bin: standard
WARNING: Inconsistent image flags
For more information see https://docs.lammps.org/err0027 (src/domain.cpp:1052)
Per MPI rank memory allocation (min/avg/max) = 13.48 | 13.48 | 13.48 Mbytes
   Step          Temp          E_pair         E_mol          TotEng         Press     
    250201   290.65054     -526.46452      672.55995      355.75795      2882.9992    
    250372   290.65054     -524.78152      660.08224      344.96324      3009.7793    
Loop time of 0.0405011 on 1 procs for 171 steps with 243 atoms

100.0% CPU use with 1 MPI tasks x 1 OpenMP threads

Minimization stats:
  Stopping criterion = force tolerance
  Energy initial, next-to-last, final = 
       146.09542637445    135.30072164084    135.30072164084
  Force two-norm initial, final = 151.24588 9.4515136e-11
  Force max component initial, final = 12.880355 1.1908696e-11
  Final line search alpha, max atom move = 1 1.1908696e-11
  Iterations, force evaluations = 171 342

MPI task timing breakdown:
Section |  min time  |  avg time  |  max time  |%varavg| %total
---------------------------------------------------------------
Pair    | 0.025858   | 0.025858   | 0.025858   |   0.0 | 63.85
Bond    | 0.01255    | 0.01255    | 0.01255    |   0.0 | 30.99
Neigh   | 0          | 0          | 0          |   0.0 |  0.00
Comm    | 0.0011548  | 0.0011548  | 0.0011548  |   0.0 |  2.85
Output  | 0          | 0          | 0          |   0.0 |  0.00
Modify  | 0          | 0          | 0          |   0.0 |  0.00
Other   |            | 0.0009387  |            |       |  2.32

Nlocal:            243 ave         243 max         243 min
Histogram: 1 0 0 0 0 0 0 0 0 0
Nghost:           1773 ave        1773 max        1773 min
Histogram: 1 0 0 0 0 0 0 0 0 0
Neighs:          12424 ave       12424 max       12424 min
Histogram: 1 0 0 0 0 0 0 0 0 0

Total # of neighbors = 12424
Ave neighs/atom = 51.127572
Ave special neighs/atom = 8
Neighbor list builds = 0
Dangerous builds = 0

# Obtain new stress tensor

variable tmp equal pxx
variable pxx1 equal ${tmp}
variable pxx1 equal 3613.08572240429
variable tmp equal pyy
variable pyy1 equal ${tmp}
variable pyy1 equal 3260.04600889847
variable tmp equal pzz
variable pzz1 equal ${tmp}
variable pzz1 equal 2156.20626952259
variable tmp equal pxy
variable pxy1 equal ${tmp}
variable pxy1 equal 12849.88285737
variable tmp equal pxz
variable pxz1 equal ${tmp}
variable pxz1 equal 2094.0145840471
variable tmp equal pyz
variable pyz1 equal ${tmp}
variable pyz1 equal -1046.33380617483

# Compute elastic constant from pressure tensor

variable C1neg equal ${d1}
variable C1neg equal 16.9356753365175
variable C2neg equal ${d2}
variable C2neg equal 16.0951253858893
variable C3neg equal ${d3}
variable C3neg equal -34.1081221595269
variable C4neg equal ${d4}
variable C4neg equal -0.00565305298649946
variable C5neg equal ${d5}
variable C5neg equal 18.8372368131118
variable C6neg equal ${d6}
variable C6neg equal 63.4246476658959

# Reset box and simulation parameters

clear
OMP_NUM_THREADS environment is not set. Defaulting to 1 thread.
  using 1 OpenMP thread(s) per MPI task
box tilt large

The 'box' command has been removed and will be ignored

read_restart restart_333SiO2-1-UFF.equil
Reading restart file ...
  restart file = 10 Sep 2025, LAMMPS = 10 Sep 2025
  restoring atom style full from restart
  triclinic box = (0.016752448 0.014535 0.092273281) to (14.674548 12.708504 15.870827) with tilt (-7.3288664 0 0)
WARNING: Triclinic box skew is large. LAMMPS will run inefficiently. (src/domain.cpp:221)
  1 by 1 by 1 MPI processor grid
  restoring pair style lj/cut from restart
  restoring bond style harmonic from restart
  restoring angle style hybrid from restart
  restoring dihedral style harmonic from restart
  243 atoms
  324 bonds
  648 angles
  972 dihedrals
Finding 1-2 1-3 1-4 neighbors ...
  special bond factors lj:    0        0        1       
  special bond factors coul:  0        0        1       
     4 = max # of 1-2 neighbors
     6 = max # of 1-3 neighbors
     8 = max # of special neighbors
  special bonds CPU = 0.000 seconds
  read_restart CPU = 0.001 seconds
include ./input/angles_333SiO2-1-UFF.mod
angle_style hybrid fourier cosine/periodic
angle_coeff 1 fourier 221.735285        0.343737        0.374972        0.281246
angle_coeff 2 cosine/periodic 88.853997              -1               3

# Positive deformation

variable delta equal ${up}*${len0}
variable delta equal 0.02*${len0}
variable delta equal 0.02*12.6939689999267
variable deltaxy equal ${up}*xy
variable deltaxy equal 0.02*xy
variable deltaxz equal ${up}*xz
variable deltaxz equal 0.02*xz
variable deltayz equal ${up}*yz
variable deltayz equal 0.02*yz
if "${dir} == 1" then    "change_box all x delta 0 ${delta} xy delta ${deltaxy} xz delta ${deltaxz} remap units box"
if "${dir} == 2" then    "change_box all y delta 0 ${delta} yz delta ${deltayz} remap units box"
if "${dir} == 3" then    "change_box all z delta 0 ${delta} remap units box"
if "${dir} == 4" then    "change_box all yz delta ${delta} remap units box"
if "${dir} == 5" then    "change_box all xz delta ${delta} remap units box"
if "${dir} == 6" then    "change_box all xy delta ${delta} remap units box"
change_box all xy delta ${delta} remap units box
change_box all xy delta 0.253879379998534 remap units box
Changing box ...
WARNING: Triclinic box skew is large. LAMMPS will run inefficiently. (src/domain.cpp:221)
  triclinic box = (0.016752448 0.014535 0.092273281) to (14.674548 12.708504 15.870827) with tilt (-7.074987 0 0)

# Relax atoms positions

minimize ${etol} ${ftol} ${maxiter} ${maxeval}
minimize 0 ${ftol} ${maxiter} ${maxeval}
minimize 0 1e-10 ${maxiter} ${maxeval}
minimize 0 1e-10 100000 ${maxeval}
minimize 0 1e-10 100000 100000
Generated 1 of 1 mixed pair_coeff terms from arithmetic mixing rule
Neighbor list info ...
  update: every = 1 steps, delay = 0 steps, check = yes
  max neighbors/atom: 2000, page size: 100000
  master list distance cutoff = 7
  ghost atom cutoff = 7
  binsize = 3.5, bins = 7 4 5
  1 neighbor lists, perpetual/occasional/extra = 1 0 0
  (1) pair lj/cut, perpetual
      attributes: half, newton on
      pair build: half/bin/newton/tri
      stencil: half/bin/3d/tri
      bin: standard
WARNING: Inconsistent image flags
For more information see https://docs.lammps.org/err0027 (src/domain.cpp:1052)
Per MPI rank memory allocation (min/avg/max) = 13.48 | 13.48 | 13.48 Mbytes
   Step          Temp          E_pair         E_mol          TotEng         Press     
    250201   290.65054     -526.14706      672.59746      356.11292      2894.3423    
    250372   290.65054     -524.781        660.08438      344.9659       3009.7654    
Loop time of 0.0400877 on 1 procs for 171 steps with 243 atoms

100.0% CPU use with 1 MPI tasks x 1 OpenMP threads

Minimization stats:
  Stopping criterion = force tolerance
  Energy initial, next-to-last, final = 
      146.450403629748    135.30338075107   135.303380751069
  Force two-norm initial, final = 151.38739 8.1409343e-11
  Force max component initial, final = 12.797168 9.8100417e-12
  Final line search alpha, max atom move = 1 9.8100417e-12
  Iterations, force evaluations = 171 342

MPI task timing breakdown:
Section |  min time  |  avg time  |  max time  |%varavg| %total
---------------------------------------------------------------
Pair    | 0.025338   | 0.025338   | 0.025338   |   0.0 | 63.21
Bond    | 0.012675   | 0.012675   | 0.012675   |   0.0 | 31.62
Neigh   | 0          | 0          | 0          |   0.0 |  0.00
Comm    | 0.0011378  | 0.0011378  | 0.0011378  |   0.0 |  2.84
Output  | 0          | 0          | 0          |   0.0 |  0.00
Modify  | 0          | 0          | 0          |   0.0 |  0.00
Other   |            | 0.0009376  |            |       |  2.34

Nlocal:            243 ave         243 max         243 min
Histogram: 1 0 0 0 0 0 0 0 0 0
Nghost:           1773 ave        1773 max        1773 min
Histogram: 1 0 0 0 0 0 0 0 0 0
Neighs:          12418 ave       12418 max       12418 min
Histogram: 1 0 0 0 0 0 0 0 0 0

Total # of neighbors = 12418
Ave neighs/atom = 51.102881
Ave special neighs/atom = 8
Neighbor list builds = 0
Dangerous builds = 0

# Obtain new stress tensor

variable tmp equal pe
variable e1 equal ${tmp}
variable e1 equal 135.303380751069
variable tmp equal press
variable p1 equal ${tmp}
variable p1 equal 3009.76544865718
variable tmp equal pxx
variable pxx1 equal ${tmp}
variable pxx1 equal 3613.00057838819
variable tmp equal pyy
variable pyy1 equal ${tmp}
variable pyy1 equal 3260.1666460432
variable tmp equal pzz
variable pzz1 equal ${tmp}
variable pzz1 equal 2156.12912154015
variable tmp equal pxy
variable pxy1 equal ${tmp}
variable pxy1 equal -12479.7208447181
variable tmp equal pxz
variable pxz1 equal ${tmp}
variable pxz1 equal -5432.79964414451
variable tmp equal pyz
variable pyz1 equal ${tmp}
variable pyz1 equal -1046.26085213049

# Compute elastic constant from pressure tensor

variable C1pos equal ${d1}
variable C1pos equal -16.935249616437
variable C2pos equal ${d2}
variable C2pos equal -16.095728571613
variable C3pos equal ${d3}
variable C3pos equal 34.108507899439
variable C4pos equal ${d4}
variable C4pos equal 0.00528828276479999
variable C5pos equal ${d5}
variable C5pos equal 18.7968343278462
variable C6pos equal ${d6}
variable C6pos equal 63.2233708445446

# Combine positive and negative

variable C1${dir} equal 0.5*(${C1neg}+${C1pos})
variable C16 equal 0.5*(${C1neg}+${C1pos})
variable C16 equal 0.5*(16.9356753365175+${C1pos})
variable C16 equal 0.5*(16.9356753365175+-16.935249616437)
variable C2${dir} equal 0.5*(${C2neg}+${C2pos})
variable C26 equal 0.5*(${C2neg}+${C2pos})
variable C26 equal 0.5*(16.0951253858893+${C2pos})
variable C26 equal 0.5*(16.0951253858893+-16.095728571613)
variable C3${dir} equal 0.5*(${C3neg}+${C3pos})
variable C36 equal 0.5*(${C3neg}+${C3pos})
variable C36 equal 0.5*(-34.1081221595269+${C3pos})
variable C36 equal 0.5*(-34.1081221595269+34.108507899439)
variable C4${dir} equal 0.5*(${C4neg}+${C4pos})
variable C46 equal 0.5*(${C4neg}+${C4pos})
variable C46 equal 0.5*(-0.00565305298649946+${C4pos})
variable C46 equal 0.5*(-0.00565305298649946+0.00528828276479999)
variable C5${dir} equal 0.5*(${C5neg}+${C5pos})
variable C56 equal 0.5*(${C5neg}+${C5pos})
variable C56 equal 0.5*(18.8372368131118+${C5pos})
variable C56 equal 0.5*(18.8372368131118+18.7968343278462)
variable C6${dir} equal 0.5*(${C6neg}+${C6pos})
variable C66 equal 0.5*(${C6neg}+${C6pos})
variable C66 equal 0.5*(63.4246476658959+${C6pos})
variable C66 equal 0.5*(63.4246476658959+63.2233708445446)

# Delete dir to make sure it is not reused

variable dir delete

# Output final values

variable C11all equal ${C11}
variable C11all equal 217.100777516924
variable C22all equal ${C22}
variable C22all equal 217.128454363553
variable C33all equal ${C33}
variable C33all equal 296.589196034589

variable C12all equal 0.5*(${C12}+${C21})
variable C12all equal 0.5*(88.2287066078572+${C21})
variable C12all equal 0.5*(88.2287066078572+87.1349476907507)
variable C13all equal 0.5*(${C13}+${C31})
variable C13all equal 0.5*(76.915425248916+${C31})
variable C13all equal 0.5*(76.915425248916+75.8085934365488)
variable C23all equal 0.5*(${C23}+${C32})
variable C23all equal 0.5*(76.8967820506068+${C32})
variable C23all equal 0.5*(76.8967820506068+75.9521125666241)

variable C44all equal ${C44}
variable C44all equal 126.454357173834
variable C55all equal ${C55}
variable C55all equal 187.110206296871
variable C66all equal ${C66}
variable C66all equal 63.3240092552202

variable C14all equal 0.5*(${C14}+${C41})
variable C14all equal 0.5*(22.5027361911182+${C41})
variable C14all equal 0.5*(22.5027361911182+18.4149179707748)
variable C15all equal 0.5*(${C15}+${C51})
variable C15all equal 0.5*(-0.0302106213752698+${C51})
variable C15all equal 0.5*(-0.0302106213752698+-0.167334730169275)
variable C16all equal 0.5*(${C16}+${C61})
variable C16all equal 0.5*(0.000212860040250007+${C61})
variable C16all equal 0.5*(0.000212860040250007+0.018575984355855)

variable C24all equal 0.5*(${C24}+${C42})
variable C24all equal 0.5*(-25.5874070247978+${C42})
variable C24all equal 0.5*(-25.5874070247978+-18.5259390341161)
variable C25all equal 0.5*(${C25}+${C52})
variable C25all equal 0.5*(-0.00972064617716325+${C52})
variable C25all equal 0.5*(-0.00972064617716325+-0.167274687763325)
variable C26all equal 0.5*(${C26}+${C62})
variable C26all equal 0.5*(-0.000301592861850608+${C62})
variable C26all equal 0.5*(-0.000301592861850608+0.018350897661445)

variable C34all equal 0.5*(${C34}+${C43})
variable C34all equal 0.5*(0.93913726059475+${C43})
variable C34all equal 0.5*(0.93913726059475+-0.104783943257326)
variable C35all equal 0.5*(${C35}+${C53})
variable C35all equal 0.5*(0.00672249004919651+${C53})
variable C35all equal 0.5*(0.00672249004919651+-0.167528483615)
variable C36all equal 0.5*(${C36}+${C63})
variable C36all equal 0.5*(0.000192869956048725+${C63})
variable C36all equal 0.5*(0.000192869956048725+0.0187208233602275)

variable C45all equal 0.5*(${C45}+${C54})
variable C45all equal 0.5*(0.00744349939058447+${C54})
variable C45all equal 0.5*(0.00744349939058447+-0.00854130870487495)
variable C46all equal 0.5*(${C46}+${C64})
variable C46all equal 0.5*(-0.000182385110849735+${C64})
variable C46all equal 0.5*(-0.000182385110849735+0.069652973120515)
variable C56all equal 0.5*(${C56}+${C65})
variable C56all equal 0.5*(18.817035570479+${C65})
variable C56all equal 0.5*(18.817035570479+22.2432499278613)

# Average moduli for cubic crystals

variable C11cubic equal (${C11all}+${C22all}+${C33all})/3.0
variable C11cubic equal (217.100777516924+${C22all}+${C33all})/3.0
variable C11cubic equal (217.100777516924+217.128454363553+${C33all})/3.0
variable C11cubic equal (217.100777516924+217.128454363553+296.589196034589)/3.0
variable C12cubic equal (${C12all}+${C13all}+${C23all})/3.0
variable C12cubic equal (87.681827149304+${C13all}+${C23all})/3.0
variable C12cubic equal (87.681827149304+76.3620093427324+${C23all})/3.0
variable C12cubic equal (87.681827149304+76.3620093427324+76.4244473086154)/3.0
variable C44cubic equal (${C44all}+${C55all}+${C66all})/3.0
variable C44cubic equal (126.454357173834+${C55all}+${C66all})/3.0
variable C44cubic equal (126.454357173834+187.110206296871+${C66all})/3.0
variable C44cubic equal (126.454357173834+187.110206296871+63.3240092552202)/3.0

variable bulkmodulus equal (${C11cubic}+2*${C12cubic})/3.0
variable bulkmodulus equal (243.606142638355+2*${C12cubic})/3.0
variable bulkmodulus equal (243.606142638355+2*80.1560946002173)/3.0
variable shearmodulus1 equal ${C44cubic}
variable shearmodulus1 equal 125.629524241975
variable shearmodulus2 equal (${C11cubic}-${C12cubic})/2.0
variable shearmodulus2 equal (243.606142638355-${C12cubic})/2.0
variable shearmodulus2 equal (243.606142638355-80.1560946002173)/2.0
variable poissonratio equal 1.0/(1.0+${C11cubic}/${C12cubic})
variable poissonratio equal 1.0/(1.0+243.606142638355/${C12cubic})
variable poissonratio equal 1.0/(1.0+243.606142638355/80.1560946002173)

print "Elastic Constant 1 1 = ${C11all}"
Elastic Constant 1 1 = 217.100777516924
print "Elastic Constant 2 2 = ${C22all}"
Elastic Constant 2 2 = 217.128454363553
print "Elastic Constant 3 3 = ${C33all}"
Elastic Constant 3 3 = 296.589196034589

print "Elastic Constant 1 2 = ${C12all}"
Elastic Constant 1 2 = 87.681827149304
print "Elastic Constant 1 3 = ${C13all}"
Elastic Constant 1 3 = 76.3620093427324
print "Elastic Constant 2 3 = ${C23all}"
Elastic Constant 2 3 = 76.4244473086154

print "Elastic Constant 4 4 = ${C44all}"
Elastic Constant 4 4 = 126.454357173834
print "Elastic Constant 5 5 = ${C55all}"
Elastic Constant 5 5 = 187.110206296871
print "Elastic Constant 6 6 = ${C66all}"
Elastic Constant 6 6 = 63.3240092552202

print "Elastic Constant 1 4 = ${C14all}"
Elastic Constant 1 4 = 20.4588270809465
print "Elastic Constant 1 5 = ${C15all}"
Elastic Constant 1 5 = -0.0987726757722724
print "Elastic Constant 1 6 = ${C16all}"
Elastic Constant 1 6 = 0.0093944221980525

print "Elastic Constant 2 4 = ${C24all}"
Elastic Constant 2 4 = -22.0566730294569
print "Elastic Constant 2 5 = ${C25all}"
Elastic Constant 2 5 = -0.0884976669702441
print "Elastic Constant 2 6 = ${C26all}"
Elastic Constant 2 6 = 0.0090246523997972

print "Elastic Constant 3 4 = ${C34all}"
Elastic Constant 3 4 = 0.417176658668712
print "Elastic Constant 3 5 = ${C35all}"
Elastic Constant 3 5 = -0.0804029967829017
print "Elastic Constant 3 6 = ${C36all}"
Elastic Constant 3 6 = 0.00945684665813811

print "Elastic Constant 4 5 = ${C45all}"
Elastic Constant 4 5 = -0.000548904657145239
print "Elastic Constant 4 6 = ${C46all}"
Elastic Constant 4 6 = 0.0347352940048326
print "Elastic Constant 5 6 = ${C56all}"
Elastic Constant 5 6 = 20.5301427491701

print "Bulk Modulus = ${bulkmodulus} ${cunits}"
Bulk Modulus = 134.639443946263 GPa
print "Shear Modulus 1 = ${shearmodulus1} ${cunits}"
Shear Modulus 1 = 125.629524241975 GPa
print "Shear Modulus 2 = ${shearmodulus2} ${cunits}"
Shear Modulus 2 = 81.7250240190689 GPa
print "Poisson Ratio = ${poissonratio}"
Poisson Ratio = 0.247577034566734

variable rho equal density
print "density (g/cm^3) = ${rho}"
density (g/cm^3) = 2.7527186116241
Total wall time: 0:00:35
