units           real
atom_style      full
boundary        p p p

pair_style      lj/cut 5.000
bond_style      harmonic
angle_style     hybrid fourier cosine/periodic
dihedral_style  harmonic

dielectric      1.0
pair_modify     tail yes mix arithmetic
special_bonds   lj/coul 0.0 0.0 1.0
box tilt        large

The 'box' command has been removed and will be ignored

read_data       ./dat/data.333-HD-100C-20-VASP
Reading data file ...
  triclinic box = (0 0 0) to (15.508641 13.422386 16.909023) with tilt (-8.253875 0.616249 -0.649062)
WARNING: Triclinic box skew is large. LAMMPS will run inefficiently. (src/domain.cpp:221)
  1 by 1 by 1 MPI processor grid
  reading atoms ...
  366 atoms
  scanning bonds ...
  4 = max bonds/atom
  scanning angles ...
  6 = max angles/atom
  scanning dihedrals ...
  30 = max dihedrals/atom
  triclinic box = (0 0 0) to (15.508641 13.422386 16.909023) with tilt (-8.253875 0.616249 -0.649062)
WARNING: Triclinic box skew is large. LAMMPS will run inefficiently. (src/domain.cpp:221)
  1 by 1 by 1 MPI processor grid
  reading bonds ...
  408 bonds
  reading angles ...
  792 angles
  reading dihedrals ...
  1080 dihedrals
Finding 1-2 1-3 1-4 neighbors ...
  special bond factors lj:    0        0        1       
  special bond factors coul:  0        0        1       
     4 = max # of 1-2 neighbors
    10 = max # of 1-3 neighbors
    14 = max # of special neighbors
  special bonds CPU = 0.000 seconds
  read_data CPU = 0.007 seconds

#### Atom Groupings ####
group           fram     id   1:366
366 atoms in group fram
#### END Atom Groupings ####

compute am all property/atom mass
dump        atom_pos all extxyz 100 ./output/333-HD-100C-20-VASP.lammpstrj
dump_modify atom_pos element Si C O H mass yes
thermo          1000
thermo_style    custom step temp pe ke etotal press vol density

variable up equal 2e-2
variable cfac equal 1.0e-4
variable cunits string GPa

# Define minimization parameters
variable etol equal 0.0
variable ftol equal 1.0e-10
variable maxiter equal 100000
variable maxeval equal 100000
variable dmax equal 1.0e-2

variable temp equal 300.0
variable thermal_damp index 100.0
variable pressure_damp index 500.0

fix relax all box/relax aniso 0.0 vmax 0.001
unfix relax
minimize ${etol} ${ftol} ${maxiter} ${maxeval}
minimize 0 ${ftol} ${maxiter} ${maxeval}
minimize 0 1e-10 ${maxiter} ${maxeval}
minimize 0 1e-10 100000 ${maxeval}
minimize 0 1e-10 100000 100000
Generated 6 of 6 mixed pair_coeff terms from arithmetic mixing rule
Neighbor list info ...
  update: every = 1 steps, delay = 0 steps, check = yes
  max neighbors/atom: 2000, page size: 100000
  master list distance cutoff = 7
  ghost atom cutoff = 7
  binsize = 3.5, bins = 7 5 5
  1 neighbor lists, perpetual/occasional/extra = 1 0 0
  (1) pair lj/cut, perpetual
      attributes: half, newton on
      pair build: half/bin/newton/tri
      stencil: half/bin/3d/tri
      bin: standard
WARNING: Inconsistent image flags
For more information see https://docs.lammps.org/err0027 (src/domain.cpp:1052)
Per MPI rank memory allocation (min/avg/max) = 19.55 | 19.55 | 19.55 Mbytes
   Step          Temp          PotEng         KinEng         TotEng         Press          Volume        Density    
         0   0              2430.2807      0              2430.2807      167143.79      3519.8324      2.0301221    
        90   0              815.59038      0              815.59038      29379.832      3519.8324      2.0301221    
Loop time of 0.0632416 on 1 procs for 90 steps with 366 atoms

100.0% CPU use with 1 MPI tasks x 1 OpenMP threads

Minimization stats:
  Stopping criterion = linesearch alpha is zero
  Energy initial, next-to-last, final = 
      2430.28071008416   815.590382706781   815.590382706781
  Force two-norm initial, final = 983.74916 21.411141
  Force max component initial, final = 101.66005 4.7787227
  Final line search alpha, max atom move = 2.3173645e-11 1.1074043e-10
  Iterations, force evaluations = 90 230

MPI task timing breakdown:
Section |  min time  |  avg time  |  max time  |%varavg| %total
---------------------------------------------------------------
Pair    | 0.044242   | 0.044242   | 0.044242   |   0.0 | 69.96
Bond    | 0.010959   | 0.010959   | 0.010959   |   0.0 | 17.33
Neigh   | 0.0050992  | 0.0050992  | 0.0050992  |   0.0 |  8.06
Comm    | 0.0013958  | 0.0013958  | 0.0013958  |   0.0 |  2.21
Output  | 0          | 0          | 0          |   0.0 |  0.00
Modify  | 0          | 0          | 0          |   0.0 |  0.00
Other   |            | 0.001545   |            |       |  2.44

Nlocal:            366 ave         366 max         366 min
Histogram: 1 0 0 0 0 0 0 0 0 0
Nghost:           2515 ave        2515 max        2515 min
Histogram: 1 0 0 0 0 0 0 0 0 0
Neighs:          26091 ave       26091 max       26091 min
Histogram: 1 0 0 0 0 0 0 0 0 0

Total # of neighbors = 26091
Ave neighs/atom = 71.286885
Ave special neighs/atom = 6.557377
Neighbor list builds = 2
Dangerous builds = 0

# Generating the full routine as described in the paper for UFF
fix nvt_relax   all nvt temp 300 300 ${thermal_damp}
fix nvt_relax   all nvt temp 300 300 100.0
run 100000      # 100 picoseconds
Generated 6 of 6 mixed pair_coeff terms from arithmetic mixing rule
WARNING: Inconsistent image flags
For more information see https://docs.lammps.org/err0027 (src/domain.cpp:1052)
Per MPI rank memory allocation (min/avg/max) = 19.49 | 19.49 | 19.49 Mbytes
   Step          Temp          PotEng         KinEng         TotEng         Press          Volume        Density    
        90   0              815.59038      0              815.59038      29379.832      3519.8324      2.0301221    
      1000   51.162104      868.21274      55.664148      923.87688      26968.529      3519.8324      2.0301221    
      2000   276.03903      1077.5556      300.32927      1377.8848      32126.367      3519.8324      2.0301221    
      3000   325.10084      1136.3631      353.7083       1490.0714      39760.979      3519.8324      2.0301221    
      4000   287.79355      1107.5697      313.11813      1420.6879      30139.489      3519.8324      2.0301221    
      5000   300.35499      1130.0437      326.78493      1456.8286      41295.227      3519.8324      2.0301221    
      6000   313.81027      1120.8344      341.42421      1462.2586      41289.595      3519.8324      2.0301221    
      7000   285.06224      1111.5125      310.14649      1421.659       31493.65       3519.8324      2.0301221    
      8000   301.57092      1144.5189      328.10786      1472.6268      33121.947      3519.8324      2.0301221    
      9000   301.93375      1107.5406      328.50261      1436.0432      34799.733      3519.8324      2.0301221    
     10000   289.82056      1132.6672      315.32352      1447.9907      32807.282      3519.8324      2.0301221    
     11000   296.39467      1156.5685      322.47611      1479.0446      33162.429      3519.8324      2.0301221    
     12000   287.76644      1106.1965      313.08864      1419.2851      35761.756      3519.8324      2.0301221    
     13000   307.38173      1124.7407      334.42999      1459.1707      32627.71       3519.8324      2.0301221    
     14000   296.62357      1103.7705      322.72515      1426.4957      32566.849      3519.8324      2.0301221    
     15000   295.94544      1118.7354      321.98736      1440.7228      32329.008      3519.8324      2.0301221    
     16000   286.64713      1113.4587      311.87084      1425.3295      34163.934      3519.8324      2.0301221    
     17000   288.82247      1120.5767      314.23759      1434.8143      38115.207      3519.8324      2.0301221    
     18000   299.13653      1121.7856      325.45925      1447.2448      34500.704      3519.8324      2.0301221    
     19000   289.12677      1114.5368      314.56868      1429.1055      38744.22       3519.8324      2.0301221    
     20000   289.0647       1137.8539      314.50114      1452.355       32576.617      3519.8324      2.0301221    
     21000   297.17615      1134.1073      323.32636      1457.4337      37646.893      3519.8324      2.0301221    
     22000   285.95736      1108.595       311.12037      1419.7153      40092.673      3519.8324      2.0301221    
     23000   321.24193      1112.3292      349.50983      1461.839       33885.757      3519.8324      2.0301221    
     24000   297.07445      1107.4206      323.21571      1430.6363      35543.178      3519.8324      2.0301221    
     25000   329.08901      1114.8965      358.04742      1472.944       37389.85       3519.8324      2.0301221    
     26000   287.11514      1126.8272      312.38003      1439.2073      34999.597      3519.8324      2.0301221    
     27000   301.51888      1142.9355      328.05123      1470.9867      36946.864      3519.8324      2.0301221    
     28000   297.62507      1131.8722      323.81479      1455.687       42359.529      3519.8324      2.0301221    
     29000   297.51806      1142.9236      323.69836      1466.6219      39869.01       3519.8324      2.0301221    
     30000   293.97225      1146.2123      319.84054      1466.0529      35053.776      3519.8324      2.0301221    
     31000   289.10572      1109.2311      314.54577      1423.7768      38332.614      3519.8324      2.0301221    
     32000   305.01347      1120.6         331.85334      1452.4533      40876.49       3519.8324      2.0301221    
     33000   291.65223      1120.2091      317.31637      1437.5255      34041.013      3519.8324      2.0301221    
     34000   288.72483      1106.0542      314.13137      1420.1855      32720.999      3519.8324      2.0301221    
     35000   310.61634      1117.9283      337.94923      1455.8775      30329.71       3519.8324      2.0301221    
     36000   279.00013      1144.549       303.55093      1448.0999      34326.534      3519.8324      2.0301221    
     37000   304.39377      1117.0679      331.1791       1448.247       31631.369      3519.8324      2.0301221    
     38000   291.15514      1099.9857      316.77553      1416.7613      32159.387      3519.8324      2.0301221    
     39000   293.8368       1115.6466      319.69316      1435.3398      37760.113      3519.8324      2.0301221    
     40000   332.01871      1112.5358      361.23492      1473.7707      33133.615      3519.8324      2.0301221    
     41000   287.25886      1123.7125      312.5364       1436.2489      39384.781      3519.8324      2.0301221    
     42000   286.11835      1136.5024      311.29553      1447.7979      36017.899      3519.8324      2.0301221    
     43000   298.93094      1090.4389      325.23557      1415.6744      34715.482      3519.8324      2.0301221    
     44000   318.2834       1115.1628      346.29096      1461.4537      39099.304      3519.8324      2.0301221    
     45000   293.07485      1113.6076      318.86417      1432.4718      40207.2        3519.8324      2.0301221    
     46000   309.65246      1122.53        336.90054      1459.4306      30043.386      3519.8324      2.0301221    
     47000   296.19862      1117.9867      322.26281      1440.2495      35767.072      3519.8324      2.0301221    
     48000   317.97054      1138.6835      345.95057      1484.6341      39077.146      3519.8324      2.0301221    
     49000   284.02528      1135.0045      309.01827      1444.0228      37677.069      3519.8324      2.0301221    
     50000   299.47203      1120.5126      325.82427      1446.3369      33089.242      3519.8324      2.0301221    
     51000   290.61583      1115.2278      316.18876      1431.4166      33941.543      3519.8324      2.0301221    
     52000   289.07234      1131.0558      314.50945      1445.5652      34876.496      3519.8324      2.0301221    
     53000   291.54353      1125.3302      317.1981       1442.5283      35098.498      3519.8324      2.0301221    
     54000   296.80252      1116.2597      322.91986      1439.1796      33574.194      3519.8324      2.0301221    
     55000   296.79097      1127.1465      322.90729      1450.0537      28986.725      3519.8324      2.0301221    
     56000   266.27848      1099.3437      289.70983      1389.0535      36445.133      3519.8324      2.0301221    
     57000   296.47654      1130.07        322.56519      1452.6352      35725.733      3519.8324      2.0301221    
     58000   284.12851      1101.4688      309.13058      1410.5994      32350.1        3519.8324      2.0301221    
     59000   300.86879      1124.1414      327.34394      1451.4854      30469.905      3519.8324      2.0301221    
     60000   274.57027      1099.9052      298.73127      1398.6365      38759.271      3519.8324      2.0301221    
     61000   295.09702      1133.2686      321.06428      1454.3329      35806.883      3519.8324      2.0301221    
     62000   283.00287      1105.3735      307.90589      1413.2794      42341.649      3519.8324      2.0301221    
     63000   296.76449      1136.1777      322.87848      1459.0562      34960.834      3519.8324      2.0301221    
     64000   306.7871       1146.0752      333.78304      1479.8582      28069.725      3519.8324      2.0301221    
     65000   293.17581      1110.0261      318.97401      1429.0001      40075.925      3519.8324      2.0301221    
     66000   323.98122      1136.9282      352.49017      1489.4183      39942.436      3519.8324      2.0301221    
     67000   291.82395      1132.559       317.50319      1450.0622      39722.227      3519.8324      2.0301221    
     68000   292.99855      1117.4521      318.78115      1436.2333      35620.689      3519.8324      2.0301221    
     69000   307.59675      1126.4046      334.66393      1461.0685      31788.263      3519.8324      2.0301221    
     70000   301.69942      1107.0183      328.24766      1435.2659      31724.815      3519.8324      2.0301221    
     71000   326.02539      1134.2847      354.71421      1488.9989      33468.847      3519.8324      2.0301221    
     72000   305.21522      1112.7994      332.07284      1444.8722      33802.684      3519.8324      2.0301221    
     73000   296.60571      1099.4982      322.70572      1422.204       35176.711      3519.8324      2.0301221    
     74000   301.71638      1125.3177      328.26611      1453.5838      38642.45       3519.8324      2.0301221    
     75000   283.49606      1122.6447      308.44248      1431.0872      39041.403      3519.8324      2.0301221    
     76000   290.84313      1128.3269      316.43607      1444.763       35962.511      3519.8324      2.0301221    
     77000   302.6824       1101.1028      329.31714      1430.42        39643.673      3519.8324      2.0301221    
     78000   291.99222      1152.7433      317.68627      1470.4296      34968.774      3519.8324      2.0301221    
     79000   281.59901      1137.3597      306.37851      1443.7382      32345.697      3519.8324      2.0301221    
     80000   281.82136      1139.8477      306.62042      1446.4681      35178.19       3519.8324      2.0301221    
     81000   327.54398      1129.2977      356.36643      1485.6641      35092.586      3519.8324      2.0301221    
     82000   283.10038      1142.0764      308.01199      1450.0883      33177.374      3519.8324      2.0301221    
     83000   290.80258      1092.4456      316.39194      1408.8376      30889.801      3519.8324      2.0301221    
     84000   299.14143      1128.0693      325.46458      1453.5338      34338.025      3519.8324      2.0301221    
     85000   312.50335      1102.1201      340.00229      1442.1224      32747.07       3519.8324      2.0301221    
     86000   293.50839      1126.2834      319.33586      1445.6192      35016.625      3519.8324      2.0301221    
     87000   311.26771      1122.0609      338.65792      1460.7188      33686.375      3519.8324      2.0301221    
     88000   295.57831      1107.4773      321.58792      1429.0653      32132.629      3519.8324      2.0301221    
     89000   323.66461      1145.3082      352.14569      1497.4539      37715.269      3519.8324      2.0301221    
     90000   288.89324      1130.7479      314.31459      1445.0625      31298.031      3519.8324      2.0301221    
     91000   277.50881      1120.9015      301.92839      1422.8299      33764.938      3519.8324      2.0301221    
     92000   317.71305      1109.3147      345.67043      1454.9851      37416.296      3519.8324      2.0301221    
     93000   289.52181      1131.9095      314.99848      1446.908       39888.494      3519.8324      2.0301221    
     94000   300.21237      1142.2048      326.62976      1468.8346      36179.549      3519.8324      2.0301221    
     95000   284.50244      1152.3639      309.53743      1461.9014      34108.465      3519.8324      2.0301221    
     96000   289.03496      1123.6078      314.46878      1438.0766      32717.323      3519.8324      2.0301221    
     97000   285.01738      1148.7989      310.09768      1458.8966      31382.431      3519.8324      2.0301221    
     98000   303.48649      1122.7831      330.19199      1452.9751      40725.751      3519.8324      2.0301221    
     99000   285.16744      1098.4003      310.26094      1408.6612      35945.967      3519.8324      2.0301221    
    100000   306.0442       1118.9607      332.97477      1451.9354      35111.165      3519.8324      2.0301221    
    100090   280.7397       1125.6971      305.44357      1431.1406      40450.928      3519.8324      2.0301221    
Loop time of 24.553 on 1 procs for 100000 steps with 366 atoms

Performance: 351.892 ns/day, 0.068 hours/ns, 4072.827 timesteps/s, 1.491 Matom-step/s
99.8% CPU use with 1 MPI tasks x 1 OpenMP threads

MPI task timing breakdown:
Section |  min time  |  avg time  |  max time  |%varavg| %total
---------------------------------------------------------------
Pair    | 16.236     | 16.236     | 16.236     |   0.0 | 66.13
Bond    | 4.2447     | 4.2447     | 4.2447     |   0.0 | 17.29
Neigh   | 2.4421     | 2.4421     | 2.4421     |   0.0 |  9.95
Comm    | 0.59568    | 0.59568    | 0.59568    |   0.0 |  2.43
Output  | 0.54094    | 0.54094    | 0.54094    |   0.0 |  2.20
Modify  | 0.35296    | 0.35296    | 0.35296    |   0.0 |  1.44
Other   |            | 0.1401     |            |       |  0.57

Nlocal:            366 ave         366 max         366 min
Histogram: 1 0 0 0 0 0 0 0 0 0
Nghost:           2503 ave        2503 max        2503 min
Histogram: 1 0 0 0 0 0 0 0 0 0
Neighs:          26015 ave       26015 max       26015 min
Histogram: 1 0 0 0 0 0 0 0 0 0

Total # of neighbors = 26015
Ave neighs/atom = 71.079235
Ave special neighs/atom = 6.557377
Neighbor list builds = 949
Dangerous builds = 0
unfix           nvt_relax

fix npt_relax   all npt temp 300 300 ${thermal_damp} iso 0 0 ${pressure_damp}
fix npt_relax   all npt temp 300 300 100.0 iso 0 0 ${pressure_damp}
fix npt_relax   all npt temp 300 300 100.0 iso 0 0 500.0
run 100000      # 100 picoseconds
Generated 6 of 6 mixed pair_coeff terms from arithmetic mixing rule
WARNING: Inconsistent image flags
For more information see https://docs.lammps.org/err0027 (src/domain.cpp:1052)
Per MPI rank memory allocation (min/avg/max) = 19.51 | 19.51 | 19.51 Mbytes
   Step          Temp          PotEng         KinEng         TotEng         Press          Volume        Density    
    100090   280.7397       1125.6971      305.44357      1431.1406      40450.928      3519.8324      2.0301221    
    101000   306.7925       1114.9049      333.78891      1448.6938      6030.0045      3652.8091      1.9562176    
    102000   309.75077      1097.3659      337.0075       1434.3734     -1624.2845      3657.6162      1.9536466    
    103000   305.49013      1092.1033      332.37194      1424.4752     -3069.1714      3669.7671      1.9471779    
    104000   303.01259      1096.0175      329.67639      1425.6939      4011.9745      3660.8905      1.9518993    
    105000   315.74417      1092.9668      343.52829      1436.4951     -565.50055      3675.3698      1.9442097    
    106000   315.14826      1103.8109      342.87995      1446.6909      1951.2457      3675.3803      1.9442041    
    107000   290.25973      1103.2916      315.80133      1419.093      -5136.0576      3673.3495      1.9452789    
    108000   301.93348      1111.7501      328.50232      1440.2524     -5584.1646      3674.096       1.9448837    
    109000   309.31111      1110.2844      336.52915      1446.8135      6137.3685      3656.213       1.9543964    
    110000   283.37262      1092.5441      308.30818      1400.8523     -5418.9358      3657.4063      1.9537587    
    111000   290.09167      1113.9562      315.61848      1429.5747      3878.0225      3662.0346      1.9512894    
    112000   280.26565      1065.9937      304.92781      1370.9215     -606.27573      3665.9766      1.9491912    
    113000   292.7545       1115.3372      318.51562      1433.8528      504.44706      3670.5593      1.9467576    
    114000   298.65428      1087.6709      324.93456      1412.6055      522.44356      3665.4035      1.949496     
    115000   301.11032      1125.373       327.60672      1452.9797     -664.04221      3678.1428      1.9427439    
    116000   291.36478      1093.6267      317.00361      1410.6303     -4012.9779      3660.1059      1.9523177    
    117000   304.52037      1125.9432      331.31684      1457.2601     -2848.7755      3681.2781      1.9410893    
    118000   304.98112      1092.5222      331.81813      1424.3403      1330.5276      3659.4274      1.9526797    
    119000   305.11561      1104.4613      331.96446      1436.4257     -5756.766       3676.2738      1.9437316    
    120000   297.28567      1084.4128      323.44552      1407.8583      1870.9674      3664.2755      1.9500961    
    121000   312.49066      1094.2056      339.98848      1434.1941      5177.8354      3663.006       1.950772     
    122000   289.92356      1081.9063      315.43558      1397.3419     -3316.244       3674.9585      1.9444272    
    123000   295.81143      1105.9609      321.84156      1427.8025      3151.3265      3664.9223      1.949752     
    124000   308.01339      1118.9337      335.11723      1454.0509     -716.41071      3680.801       1.9413409    
    125000   296.41095      1092.452       322.49383      1414.9458     -2340.2058      3672.6975      1.9456243    
    126000   312.91129      1116.7749      340.44612      1457.221       4654.6758      3659.7393      1.9525133    
    127000   287.50586      1093.4024      312.80513      1406.2075      11244.118      3642.2671      1.9618796    
    128000   295.10996      1117.4478      321.07836      1438.5261      3036.2512      3672.0179      1.9459844    
    129000   309.75285      1126.1075      337.00976      1463.1172      3281.8873      3652.8926      1.9561729    
    130000   290.31063      1100.1246      315.8567       1415.9813      3110.4776      3656.9569      1.9539988    
    131000   330.84993      1126.1502      359.96329      1486.1135      5056.5193      3635.7458      1.9653985    
    132000   281.64097      1108.9364      306.42416      1415.3606     -2211.7243      3687.8782      1.9376154    
    133000   286.93286      1104.5688      312.18171      1416.7505      1117.0688      3654.0057      1.955577     
    134000   314.28886      1089.6851      341.94492      1431.6301      2893.7958      3650.9667      1.9572048    
    135000   301.20949      1102.7077      327.71462      1430.4223     -891.68253      3659.695       1.9525369    
    136000   297.35652      1110.3577      323.52261      1433.8803      9973.442       3647.3581      1.9591412    
    137000   296.155        1074.8286      322.21536      1397.044       2900.4581      3663.2077      1.9506646    
    138000   309.84552      1100.0964      337.11059      1437.2069      34.953476      3665.4313      1.9494812    
    139000   276.84193      1094.8322      301.20282      1396.035       1470.3396      3665.2332      1.9495866    
    140000   306.76792      1100.3036      333.76217      1434.0658      4897.9929      3660.4804      1.9521179    
    141000   308.59198      1080.9194      335.74674      1416.6662      6003.9361      3661.5952      1.9515236    
    142000   317.26244      1086.9132      345.18016      1432.0934     -3821.0182      3675.4656      1.944159     
    143000   308.03198      1099.6524      335.13746      1434.7899     -972.5392       3670.7049      1.9466805    
    144000   297.65756      1085.0849      323.85014      1408.9351      2275.7509      3665.768       1.9493021    
    145000   321.86976      1084.8965      350.1929       1435.0894      2818.521       3669.8941      1.9471105    
    146000   284.01346      1102.0655      309.00542      1411.0709     -5166.2681      3671.9013      1.9460462    
    147000   306.34081      1111.3135      333.29747      1444.611      -931.2301       3654.2665      1.9554374    
    148000   305.67306      1108.3923      332.57096      1440.9633     -4946.2392      3673.1918      1.9453625    
    149000   304.47193      1084.2669      331.26415      1415.531       2343.9793      3667.0097      1.9486421    
    150000   309.30404      1122.9316      336.52145      1459.4531      2062.6789      3656.6567      1.9541592    
    151000   302.493        1082.3961      329.11108      1411.5072      1849.2391      3675.6005      1.9440877    
    152000   285.02635      1083.3437      310.10743      1393.4511      211.38284      3662.5283      1.9510264    
    153000   317.27853      1093.4652      345.19766      1438.6629     -3300.2261      3683.2702      1.9400394    
    154000   292.06297      1082.1091      317.76324      1399.8724     -5461.9281      3673.8967      1.9449892    
    155000   305.08737      1098.9274      331.93374      1430.8611      4574.4883      3648.7601      1.9583884    
    156000   306.16732      1120.8482      333.10872      1453.9569      2725.9596      3660.7116      1.9519947    
    157000   302.75088      1097.3722      329.39165      1426.7638     -7155.2434      3664.0153      1.9502346    
    158000   306.90842      1100.723       333.91503      1434.638      -4653.5821      3655.7496      1.9546441    
    159000   300.02361      1098.8741      326.42439      1425.2984     -5799.4875      3668.5518      1.947823     
    160000   306.88077      1099.5812      333.88495      1433.4662     -5228.7821      3662.4616      1.951062     
    161000   292.54373      1082.4515      318.28631      1400.7378     -1594.1313      3667.9606      1.9481369    
    162000   296.39509      1087.6914      322.47658      1410.168       3719.3151      3659.3421      1.9527252    
    163000   314.58344      1116.184       342.26542      1458.4494      5952.8195      3652.3861      1.9564442    
    164000   285.51057      1104.3565      310.63427      1414.9908      728.04494      3667.0859      1.9486016    
    165000   312.87906      1112.1884      340.41106      1452.5995     -1026.7402      3662.2674      1.9511654    
    166000   293.61846      1096.4795      319.45562      1415.9351     -6079.801       3678.5615      1.9425228    
    167000   302.77488      1130.8325      329.41776      1460.2503      5368.422       3656.4854      1.9542508    
    168000   280.80627      1099.8025      305.51601      1405.3185     -3207.1882      3665.0561      1.9496808    
    169000   295.71559      1103.8602      321.73728      1425.5975      196.59592      3678.2255      1.9427002    
    170000   294.69078      1077.432       320.62229      1398.0542     -5954.0995      3680.6692      1.9414104    
    171000   304.06355      1115.2462      330.81983      1446.066       6251.0486      3634.0122      1.9663361    
    172000   312.7891       1113.8305      340.31318      1454.1437     -2973.603       3667.971       1.9481314    
    173000   297.73462      1080.3331      323.93398      1404.2671     -2240.7049      3671.0333      1.9465063    
    174000   294.68781      1106.1594      320.61906      1426.7785     -428.89992      3652.0815      1.9566073    
    175000   289.03357      1090.2449      314.46727      1404.7122     -1137.3859      3673.0071      1.9454603    
    176000   301.36108      1101.0867      327.87955      1428.9662     -3933.8371      3670.7423      1.9466606    
    177000   304.71636      1082.2014      331.53008      1413.7315      6083.276       3654.582       1.9552686    
    178000   301.99796      1088.2892      328.57247      1416.8617      1223.2505      3655.0424      1.9550223    
    179000   309.88909      1123.9344      337.15798      1461.0924      293.36731      3676.9438      1.9433774    
    180000   303.00808      1106.5117      329.67148      1436.1832     -10074.709      3674.0296      1.9449188    
    181000   287.55492      1079.398       312.85851      1392.2565     -3776.0022      3665.0123      1.9497041    
    182000   299.79306      1113.3787      326.17355      1439.5522      2226.4646      3654.8209      1.9551408    
    183000   319.11431      1122.7653      347.19499      1469.9602     -1798.4619      3662.0582      1.9512769    
    184000   288.69459      1100.9016      314.09846      1415          -2011.9131      3664.2584      1.9501052    
    185000   326.90427      1109.6215      355.67043      1465.292      -967.32698      3669.55        1.9472931    
    186000   312.75855      1091.0389      340.27995      1431.3188     -97.106716      3657.9378      1.9534749    
    187000   295.03152      1085.3197      320.99301      1406.3127      5812.4663      3657.9839      1.9534502    
    188000   319.68516      1100.9201      347.81607      1448.7362      3071.0363      3669.2753      1.9474389    
    189000   304.51025      1090.3213      331.30584      1421.6271     -2950.3758      3663.4079      1.950558     
    190000   307.56425      1136.0622      334.62857      1470.6908      120.61156      3656.4123      1.9542899    
    191000   298.7541       1089.8757      325.04317      1414.9189      1676.2016      3667.8151      1.9482142    
    192000   292.99987      1122.0447      318.78259      1440.8273     -590.87814      3661.921       1.95135      
    193000   311.64976      1091.0111      339.07359      1430.0847     -2387.5095      3660.3093      1.9522092    
    194000   289.78199      1109.7439      315.28155      1425.0254      1420.134       3657.8549      1.9535191    
    195000   314.52503      1108.2492      342.20187      1450.4511      5493.4311      3625.7632      1.9708098    
    196000   303.44393      1088.1366      330.14568      1418.2822     -5483.0591      3666.0585      1.9491477    
    197000   288.46457      1100.3681      313.8482       1414.2163     -2576.4862      3655.0415      1.9550228    
    198000   305.51727      1109.4157      332.40147      1441.8172     -915.16925      3686.6325      1.9382701    
    199000   301.05507      1080.913       327.54661      1408.4597      3856.59        3663.7889      1.9503551    
    200000   316.63696      1112.4718      344.49964      1456.9714     -1319.014       3652.4574      1.956406     
    200090   304.09026      1093.6609      330.84888      1424.5098     -1656.7906      3682.7938      1.9402904    
Loop time of 25.6504 on 1 procs for 100000 steps with 366 atoms

Performance: 336.837 ns/day, 0.071 hours/ns, 3898.573 timesteps/s, 1.427 Matom-step/s
99.8% CPU use with 1 MPI tasks x 1 OpenMP threads

MPI task timing breakdown:
Section |  min time  |  avg time  |  max time  |%varavg| %total
---------------------------------------------------------------
Pair    | 15.199     | 15.199     | 15.199     |   0.0 | 59.25
Bond    | 5.3875     | 5.3875     | 5.3875     |   0.0 | 21.00
Neigh   | 3.0499     | 3.0499     | 3.0499     |   0.0 | 11.89
Comm    | 0.57018    | 0.57018    | 0.57018    |   0.0 |  2.22
Output  | 0.52711    | 0.52711    | 0.52711    |   0.0 |  2.05
Modify  | 0.77224    | 0.77224    | 0.77224    |   0.0 |  3.01
Other   |            | 0.1445     |            |       |  0.56

Nlocal:            366 ave         366 max         366 min
Histogram: 1 0 0 0 0 0 0 0 0 0
Nghost:           2449 ave        2449 max        2449 min
Histogram: 1 0 0 0 0 0 0 0 0 0
Neighs:          25051 ave       25051 max       25051 min
Histogram: 1 0 0 0 0 0 0 0 0 0

Total # of neighbors = 25051
Ave neighs/atom = 68.445355
Ave special neighs/atom = 6.557377
Neighbor list builds = 1355
Dangerous builds = 0
unfix           npt_relax

# fix nvt_heat    all nvt temp 300 1000 ${thermal_damp}
# run 100000      # 100 picoseconds
# unfix           nvt_heat
#
# fix npt_heat    all npt temp 1000 1000 ${thermal_damp} iso 0 0 ${pressure_damp}
# run 100000      # 100 picoseconds
# unfix           npt_heat
#
# fix cooling_npt all npt temp 1000 300 ${thermal_damp} iso 0 0 ${pressure_damp}
# run 700000      # 700 picoseconds
# unfix           cooling_npt
#
# fix npt_final   all npt temp 300 300 ${thermal_damp} iso 0 0 100
# run 100000      # 100 picoseconds
# unfix           npt_final

# density computation
variable rho equal density
fix integrate  all npt temp ${temp} ${temp} ${thermal_damp} iso 0 0 ${pressure_damp}
fix integrate  all npt temp 300 ${temp} ${thermal_damp} iso 0 0 ${pressure_damp}
fix integrate  all npt temp 300 300 ${thermal_damp} iso 0 0 ${pressure_damp}
fix integrate  all npt temp 300 300 100.0 iso 0 0 ${pressure_damp}
fix integrate  all npt temp 300 300 100.0 iso 0 0 500.0
fix rho50k all ave/time 10 5000 50000 v_rho mode scalar ave one
run 50000
Generated 6 of 6 mixed pair_coeff terms from arithmetic mixing rule
WARNING: Inconsistent image flags
For more information see https://docs.lammps.org/err0027 (src/domain.cpp:1052)
Per MPI rank memory allocation (min/avg/max) = 19.51 | 19.51 | 19.51 Mbytes
   Step          Temp          PotEng         KinEng         TotEng         Press          Volume        Density    
    200090   304.09026      1093.6609      330.84888      1424.5098     -1656.7906      3682.7938      1.9402904    
    201000   292.3256       1097.1866      318.04898      1415.2356     -733.00471      3673.0326      1.9454468    
    202000   310.60488      1110.105       337.93676      1448.0417     -4786.8295      3682.9472      1.9402096    
    203000   295.95198      1092.7988      321.99448      1414.7933     -2432.2037      3691.9388      1.9354842    
    204000   300.2045       1095.9596      326.6212       1422.5808     -812.21382      3656.2816      1.9543597    
    205000   317.83212      1108.3295      345.79997      1454.1295     -4034.7722      3678.7374      1.9424299    
    206000   312.62713      1096.3122      340.13696      1436.4492      2683.9805      3655.2683      1.9549015    
    207000   297.19797      1087.6391      323.35011      1410.9892     -8601.3311      3692.3847      1.9352505    
    208000   303.94151      1127.2488      330.68705      1457.9359      192.5837       3660.4196      1.9521504    
    209000   284.90564      1115.9601      309.97611      1425.9362     -4621.2303      3683.1544      1.9401004    
    210000   295.37568      1083.5165      321.36746      1404.8839     -4159.4172      3671.3617      1.9463322    
    211000   300.02731      1109.0209      326.42841      1435.4493      4319.4818      3639.9807      1.9631119    
    212000   308.36953      1094.7923      335.50471      1430.297      -45.939576      3645.8243      1.9599654    
    213000   298.0732       1114.0806      324.30235      1438.3829      746.08379      3664.9614      1.9497312    
    214000   307.5552       1084.9392      334.61872      1419.5579     -4217.8647      3682.7342      1.9403218    
    215000   298.55873      1117.4052      324.8306       1442.2358      1437.1919      3649.5633      1.9579574    
    216000   268.59723      1108.2895      292.23262      1400.5221      6249.4346      3651.347       1.9570009    
    217000   295.19499      1114.8893      321.17087      1436.0602     -3016.0746      3667.5682      1.9483454    
    218000   275.18745      1078.3999      299.40276      1377.8027     -1072.259       3664.6323      1.9499063    
    219000   306.41412      1105.8323      333.37723      1439.2096     -2852.3273      3676.6668      1.9435238    
    220000   289.49882      1082.7207      314.97346      1397.6942     -2337.9607      3683.8758      1.9397205    
    221000   306.38688      1100.0715      333.34759      1433.4191      8416.5571      3637.2707      1.9645745    
    222000   288.16834      1086.6671      313.5259       1400.193      -6895.6149      3686.4186      1.9383825    
    223000   318.27591      1116.8205      346.28281      1463.1033     -7734.6172      3680.6539      1.9414185    
    224000   300.07456      1104.9647      326.47982      1431.4445      7134.0043      3654.8028      1.9551505    
    225000   283.99798      1107.0683      308.98857      1416.0568     -3162.2075      3671.2024      1.9464166    
    226000   298.60031      1088.3937      324.87585      1413.2696     -4854.9445      3685.8124      1.9387014    
    227000   284.74659      1117.86        309.80306      1427.663      -4065.2519      3680.7839      1.9413499    
    228000   300.04868      1121.1825      326.45166      1447.6341      4391.3384      3668.0054      1.9481131    
    229000   301.7951       1086.2504      328.35176      1414.6022     -2185.854       3672.7505      1.9455962    
    230000   319.28568      1089.6873      347.38144      1437.0687     -874.14355      3674.6361      1.9445979    
    231000   286.95967      1078.9323      312.21087      1391.1432      147.72193      3666.3424      1.9489967    
    232000   303.66938      1110.7581      330.39097      1441.1491      719.63439      3650.744       1.9573242    
    233000   317.1594       1116.5911      345.06806      1461.6591     -1559.695       3675.9471      1.9439043    
    234000   301.90797      1090.5912      328.47456      1419.0657     -8235.6411      3661.4698      1.9515905    
    235000   311.81767      1131.2058      339.25628      1470.4621      2204.6749      3655.2287      1.9549227    
    236000   265.89457      1129.0205      289.29214      1418.3126     -3835.7139      3691.5152      1.9357064    
    237000   287.71734      1111.1049      313.03522      1424.1401     -438.05239      3665.4913      1.9494493    
    238000   303.82265      1096.2484      330.55773      1426.8062      193.84447      3663.1633      1.9506882    
    239000   322.34682      1070.2478      350.71194      1420.9598      1789.7673      3650.3762      1.9575214    
    240000   300.04259      1105.2128      326.44504      1431.6579     -1437.9043      3665.6619      1.9493586    
    241000   307.40746      1122.3479      334.45799      1456.8058      3783.1036      3656.4797      1.9542538    
    242000   307.01382      1078.0846      334.02971      1412.1143     -2537.7649      3676.6342      1.943541     
    243000   320.00852      1122.4394      348.16789      1470.6073     -5124.4788      3670.2635      1.9469145    
    244000   300.18253      1097.5762      326.59729      1424.1735      1139.8842      3652.8668      1.9561867    
    245000   307.53296      1091.3813      334.59453      1425.9758      6216.3097      3660.3826      1.9521701    
    246000   287.40757      1092.6352      312.69819      1405.3334      2137.1679      3669.0144      1.9475774    
    247000   310.27235      1081.807       337.57497      1419.3819      2623.0323      3661.0549      1.9518116    
    248000   301.89113      1086.6068      328.45624      1415.063       2125.6412      3653.4483      1.9558754    
    249000   303.68957      1106.4266      330.41294      1436.8395      1696.2077      3672.823       1.9455578    
    250000   281.90444      1076.8019      306.71081      1383.5127      10938.561      3632.1193      1.9673609    
    250090   303.46893      1088.4219      330.17288      1418.5948      1021.8357      3661.5871      1.9515279    
Loop time of 12.3055 on 1 procs for 50000 steps with 366 atoms

Performance: 351.062 ns/day, 0.068 hours/ns, 4063.213 timesteps/s, 1.487 Matom-step/s
99.7% CPU use with 1 MPI tasks x 1 OpenMP threads

MPI task timing breakdown:
Section |  min time  |  avg time  |  max time  |%varavg| %total
---------------------------------------------------------------
Pair    | 7.2951     | 7.2951     | 7.2951     |   0.0 | 59.28
Bond    | 2.584      | 2.584      | 2.584      |   0.0 | 21.00
Neigh   | 1.4524     | 1.4524     | 1.4524     |   0.0 | 11.80
Comm    | 0.27582    | 0.27582    | 0.27582    |   0.0 |  2.24
Output  | 0.25151    | 0.25151    | 0.25151    |   0.0 |  2.04
Modify  | 0.37655    | 0.37655    | 0.37655    |   0.0 |  3.06
Other   |            | 0.07019    |            |       |  0.57

Nlocal:            366 ave         366 max         366 min
Histogram: 1 0 0 0 0 0 0 0 0 0
Nghost:           2428 ave        2428 max        2428 min
Histogram: 1 0 0 0 0 0 0 0 0 0
Neighs:          24854 ave       24854 max       24854 min
Histogram: 1 0 0 0 0 0 0 0 0 0

Total # of neighbors = 24854
Ave neighs/atom = 67.907104
Ave special neighs/atom = 6.557377
Neighbor list builds = 672
Dangerous builds = 0
unfix integrate
unfix rho50k

# Compute initial state
fix 3 all box/relax  aniso 0.0
minimize ${etol} ${ftol} ${maxiter} ${maxeval}
minimize 0 ${ftol} ${maxiter} ${maxeval}
minimize 0 1e-10 ${maxiter} ${maxeval}
minimize 0 1e-10 100000 ${maxeval}
minimize 0 1e-10 100000 100000
Generated 6 of 6 mixed pair_coeff terms from arithmetic mixing rule
WARNING: Energy due to 3 extra global DOFs will be included in minimizer energies
 (src/min.cpp:222)
WARNING: Inconsistent image flags
For more information see https://docs.lammps.org/err0027 (src/domain.cpp:1052)
Per MPI rank memory allocation (min/avg/max) = 20.62 | 20.62 | 20.62 Mbytes
   Step          Temp          PotEng         KinEng         TotEng         Press          Volume        Density    
    250090   303.46893      1088.4219      330.17288      1418.5948      1021.8357      3661.5871      1.9515279    
    250125   303.46893      1084.5282      330.17288      1414.701       3772.1857      3655.9216      1.9545522    
Loop time of 0.06533 on 1 procs for 35 steps with 366 atoms

99.5% CPU use with 1 MPI tasks x 1 OpenMP threads

Minimization stats:
  Stopping criterion = linesearch alpha is zero
  Energy initial, next-to-last, final = 
      1088.42194884533   1084.52815193709   1084.52815193709
  Force two-norm initial, final = 889.24889 697.00992
  Force max component initial, final = 550.91542 166.91332
  Final line search alpha, max atom move = 1.7854969e-14 2.9802322e-12
  Iterations, force evaluations = 35 218

MPI task timing breakdown:
Section |  min time  |  avg time  |  max time  |%varavg| %total
---------------------------------------------------------------
Pair    | 0.043824   | 0.043824   | 0.043824   |   0.0 | 67.08
Bond    | 0.013304   | 0.013304   | 0.013304   |   0.0 | 20.36
Neigh   | 0          | 0          | 0          |   0.0 |  0.00
Comm    | 0.0012414  | 0.0012414  | 0.0012414  |   0.0 |  1.90
Output  | 0.00064254 | 0.00064254 | 0.00064254 |   0.0 |  0.98
Modify  | 0          | 0          | 0          |   0.0 |  0.00
Other   |            | 0.006318   |            |       |  9.67

Nlocal:            366 ave         366 max         366 min
Histogram: 1 0 0 0 0 0 0 0 0 0
Nghost:           2440 ave        2440 max        2440 min
Histogram: 1 0 0 0 0 0 0 0 0 0
Neighs:          24988 ave       24988 max       24988 min
Histogram: 1 0 0 0 0 0 0 0 0 0

Total # of neighbors = 24988
Ave neighs/atom = 68.273224
Ave special neighs/atom = 6.557377
Neighbor list builds = 0
Dangerous builds = 0

variable tmp equal pxx
variable pxx0 equal ${tmp}
variable pxx0 equal 4560.02033427127
variable tmp equal pyy
variable pyy0 equal ${tmp}
variable pyy0 equal 5803.37932336836
variable tmp equal pzz
variable pzz0 equal ${tmp}
variable pzz0 equal 953.157328757695
variable tmp equal pyz
variable pyz0 equal ${tmp}
variable pyz0 equal -4889.66960995264
variable tmp equal pxz
variable pxz0 equal ${tmp}
variable pxz0 equal -5119.9705825424
variable tmp equal pxy
variable pxy0 equal ${tmp}
variable pxy0 equal 1172.21265724714

variable tmp equal lx
variable lx0 equal ${tmp}
variable lx0 equal 15.7115527120224
variable tmp equal ly
variable ly0 equal ${tmp}
variable ly0 equal 13.6127941268845
variable tmp equal lz
variable lz0 equal ${tmp}
variable lz0 equal 17.093480178614

# These formulas define the derivatives w.r.t. strain components
# Constants uses $, variables use v_
variable d1 equal -(v_pxx1-${pxx0})/(v_delta/v_len0)*${cfac}
variable d1 equal -(v_pxx1-4560.02033427127)/(v_delta/v_len0)*${cfac}
variable d1 equal -(v_pxx1-4560.02033427127)/(v_delta/v_len0)*0.0001
variable d2 equal -(v_pyy1-${pyy0})/(v_delta/v_len0)*${cfac}
variable d2 equal -(v_pyy1-5803.37932336836)/(v_delta/v_len0)*${cfac}
variable d2 equal -(v_pyy1-5803.37932336836)/(v_delta/v_len0)*0.0001
variable d3 equal -(v_pzz1-${pzz0})/(v_delta/v_len0)*${cfac}
variable d3 equal -(v_pzz1-953.157328757695)/(v_delta/v_len0)*${cfac}
variable d3 equal -(v_pzz1-953.157328757695)/(v_delta/v_len0)*0.0001
variable d4 equal -(v_pyz1-${pyz0})/(v_delta/v_len0)*${cfac}
variable d4 equal -(v_pyz1--4889.66960995264)/(v_delta/v_len0)*${cfac}
variable d4 equal -(v_pyz1--4889.66960995264)/(v_delta/v_len0)*0.0001
variable d5 equal -(v_pxz1-${pxz0})/(v_delta/v_len0)*${cfac}
variable d5 equal -(v_pxz1--5119.9705825424)/(v_delta/v_len0)*${cfac}
variable d5 equal -(v_pxz1--5119.9705825424)/(v_delta/v_len0)*0.0001
variable d6 equal -(v_pxy1-${pxy0})/(v_delta/v_len0)*${cfac}
variable d6 equal -(v_pxy1-1172.21265724714)/(v_delta/v_len0)*${cfac}
variable d6 equal -(v_pxy1-1172.21265724714)/(v_delta/v_len0)*0.0001

# displace_atoms all random ${atomjiggle} ${atomjiggle} ${atomjiggle} 87287 units box

# Write restart
unfix 3
write_restart restart_333-HD-100C-20-VASP.equil
System init for write_restart ...
Generated 6 of 6 mixed pair_coeff terms from arithmetic mixing rule

# uxx Perturbation

variable dir equal 1
include ./input/displace_333-HD-100C-20-VASP.mod
if "${dir} == 1" then    "variable len0 equal ${lx0}"
variable len0 equal ${lx0}
variable len0 equal 15.7115527120224
if "${dir} == 2" then    "variable len0 equal ${ly0}"
if "${dir} == 3" then    "variable len0 equal ${lz0}"
if "${dir} == 4" then    "variable len0 equal ${lz0}"
if "${dir} == 5" then    "variable len0 equal ${lz0}"
if "${dir} == 6" then    "variable len0 equal ${ly0}"

# Reset box and simulation parameters

clear
OMP_NUM_THREADS environment is not set. Defaulting to 1 thread.
  using 1 OpenMP thread(s) per MPI task
box tilt large

The 'box' command has been removed and will be ignored

read_restart restart_333-HD-100C-20-VASP.equil
Reading restart file ...
  restart file = 10 Sep 2025, LAMMPS = 10 Sep 2025
  restoring atom style full from restart
  triclinic box = (-0.10145586 -0.095204063 -0.092228589) to (15.610097 13.51759 17.001252) with tilt (-8.3709633 0.62297154 -0.65614249)
WARNING: Triclinic box skew is large. LAMMPS will run inefficiently. (src/domain.cpp:221)
  1 by 1 by 1 MPI processor grid
  restoring pair style lj/cut from restart
  restoring bond style harmonic from restart
  restoring angle style hybrid from restart
  restoring dihedral style harmonic from restart
  366 atoms
  408 bonds
  792 angles
  1080 dihedrals
Finding 1-2 1-3 1-4 neighbors ...
  special bond factors lj:    0        0        1       
  special bond factors coul:  0        0        1       
     4 = max # of 1-2 neighbors
    10 = max # of 1-3 neighbors
    14 = max # of special neighbors
  special bonds CPU = 0.000 seconds
  read_restart CPU = 0.001 seconds
include ./input/angles_333-HD-100C-20-VASP.mod
angle_style hybrid fourier cosine/periodic
angle_coeff 1 fourier 157.882480        0.343737        0.374972        0.281246
angle_coeff 2 fourier 221.735285        0.343737        0.374972        0.281246
angle_coeff 3 fourier 114.246973        0.343737        0.374972        0.281246
angle_coeff 4 fourier 90.420412        0.343737        0.374972        0.281246
angle_coeff 5 fourier 75.498766        0.343737        0.374972        0.281246
angle_coeff 6 cosine/periodic 88.853997              -1               3

# Negative deformation

variable delta equal -${up}*${len0}
variable delta equal -0.02*${len0}
variable delta equal -0.02*15.7115527120224
variable deltaxy equal -${up}*xy
variable deltaxy equal -0.02*xy
variable deltaxz equal -${up}*xz
variable deltaxz equal -0.02*xz
variable deltayz equal -${up}*yz
variable deltayz equal -0.02*yz
if "${dir} == 1" then    "change_box all x delta 0 ${delta} xy delta ${deltaxy} xz delta ${deltaxz} remap units box"
change_box all x delta 0 ${delta} xy delta ${deltaxy} xz delta ${deltaxz} remap units box
change_box all x delta 0 -0.314231054240448 xy delta ${deltaxy} xz delta ${deltaxz} remap units box
change_box all x delta 0 -0.314231054240448 xy delta 0.167419266774226 xz delta ${deltaxz} remap units box
change_box all x delta 0 -0.314231054240448 xy delta 0.167419266774226 xz delta -0.012459430762607 remap units box
Changing box ...
WARNING: Triclinic box skew is large. LAMMPS will run inefficiently. (src/domain.cpp:221)
  triclinic box = (-0.10145586 -0.095204063 -0.092228589) to (15.295866 13.51759 17.001252) with tilt (-8.3709633 0.62297154 -0.65614249)
WARNING: Triclinic box skew is large. LAMMPS will run inefficiently. (src/domain.cpp:221)
  triclinic box = (-0.10145586 -0.095204063 -0.092228589) to (15.295866 13.51759 17.001252) with tilt (-8.2035441 0.62297154 -0.65614249)
WARNING: Triclinic box skew is large. LAMMPS will run inefficiently. (src/domain.cpp:221)
  triclinic box = (-0.10145586 -0.095204063 -0.092228589) to (15.295866 13.51759 17.001252) with tilt (-8.2035441 0.61051211 -0.65614249)
if "${dir} == 2" then    "change_box all y delta 0 ${delta} yz delta ${deltayz} remap units box"
if "${dir} == 3" then    "change_box all z delta 0 ${delta} remap units box"
if "${dir} == 4" then    "change_box all yz delta ${delta} remap units box"
if "${dir} == 5" then    "change_box all xz delta ${delta} remap units box"
if "${dir} == 6" then    "change_box all xy delta ${delta} remap units box"

# Relax atoms positions

minimize ${etol} ${ftol} ${maxiter} ${maxeval}
minimize 0 ${ftol} ${maxiter} ${maxeval}
minimize 0 1e-10 ${maxiter} ${maxeval}
minimize 0 1e-10 100000 ${maxeval}
minimize 0 1e-10 100000 100000
Generated 6 of 6 mixed pair_coeff terms from arithmetic mixing rule
Neighbor list info ...
  update: every = 1 steps, delay = 0 steps, check = yes
  max neighbors/atom: 2000, page size: 100000
  master list distance cutoff = 7
  ghost atom cutoff = 7
  binsize = 3.5, bins = 7 5 5
  1 neighbor lists, perpetual/occasional/extra = 1 0 0
  (1) pair lj/cut, perpetual
      attributes: half, newton on
      pair build: half/bin/newton/tri
      stencil: half/bin/3d/tri
      bin: standard
WARNING: Inconsistent image flags
For more information see https://docs.lammps.org/err0027 (src/domain.cpp:1052)
Per MPI rank memory allocation (min/avg/max) = 19.54 | 19.54 | 19.54 Mbytes
   Step          Temp          E_pair         E_mol          TotEng         Press     
    250125   303.46893     -255.86736      1379.7255      1454.031       38738.95     
    250154   303.46893     -317.45136      1097.3059      1110.0274      18012.886    
Loop time of 0.0238828 on 1 procs for 29 steps with 366 atoms

100.0% CPU use with 1 MPI tasks x 1 OpenMP threads

Minimization stats:
  Stopping criterion = linesearch alpha is zero
  Energy initial, next-to-last, final = 
      1123.85816641848   779.854514387273   779.854514387273
  Force two-norm initial, final = 687.77541 17.881966
  Force max component initial, final = 77.293509 1.9732322
  Final line search alpha, max atom move = 1.9772871e-11 3.9016465e-11
  Iterations, force evaluations = 29 115

MPI task timing breakdown:
Section |  min time  |  avg time  |  max time  |%varavg| %total
---------------------------------------------------------------
Pair    | 0.018233   | 0.018233   | 0.018233   |   0.0 | 76.34
Bond    | 0.0047144  | 0.0047144  | 0.0047144  |   0.0 | 19.74
Neigh   | 0          | 0          | 0          |   0.0 |  0.00
Comm    | 0.00053263 | 0.00053263 | 0.00053263 |   0.0 |  2.23
Output  | 0          | 0          | 0          |   0.0 |  0.00
Modify  | 0          | 0          | 0          |   0.0 |  0.00
Other   |            | 0.0004029  |            |       |  1.69

Nlocal:            366 ave         366 max         366 min
Histogram: 1 0 0 0 0 0 0 0 0 0
Nghost:           2463 ave        2463 max        2463 min
Histogram: 1 0 0 0 0 0 0 0 0 0
Neighs:          25587 ave       25587 max       25587 min
Histogram: 1 0 0 0 0 0 0 0 0 0

Total # of neighbors = 25587
Ave neighs/atom = 69.909836
Ave special neighs/atom = 6.557377
Neighbor list builds = 0
Dangerous builds = 0

# Obtain new stress tensor

variable tmp equal pxx
variable pxx1 equal ${tmp}
variable pxx1 equal 32576.8441486351
variable tmp equal pyy
variable pyy1 equal ${tmp}
variable pyy1 equal 15256.0865110059
variable tmp equal pzz
variable pzz1 equal ${tmp}
variable pzz1 equal 6205.72720967859
variable tmp equal pxy
variable pxy1 equal ${tmp}
variable pxy1 equal 6684.17408180644
variable tmp equal pxz
variable pxz1 equal ${tmp}
variable pxz1 equal -7736.49786563921
variable tmp equal pyz
variable pyz1 equal ${tmp}
variable pyz1 equal -6545.92471992331

# Compute elastic constant from pressure tensor

variable C1neg equal ${d1}
variable C1neg equal 140.084119071819
variable C2neg equal ${d2}
variable C2neg equal 47.2635359381877
variable C3neg equal ${d3}
variable C3neg equal 26.2628494046045
variable C4neg equal ${d4}
variable C4neg equal -8.28127554985335
variable C5neg equal ${d5}
variable C5neg equal -13.0826364154841
variable C6neg equal ${d6}
variable C6neg equal 27.5598071227965

# Reset box and simulation parameters

clear
OMP_NUM_THREADS environment is not set. Defaulting to 1 thread.
  using 1 OpenMP thread(s) per MPI task
box tilt large

The 'box' command has been removed and will be ignored

read_restart restart_333-HD-100C-20-VASP.equil
Reading restart file ...
  restart file = 10 Sep 2025, LAMMPS = 10 Sep 2025
  restoring atom style full from restart
  triclinic box = (-0.10145586 -0.095204063 -0.092228589) to (15.610097 13.51759 17.001252) with tilt (-8.3709633 0.62297154 -0.65614249)
WARNING: Triclinic box skew is large. LAMMPS will run inefficiently. (src/domain.cpp:221)
  1 by 1 by 1 MPI processor grid
  restoring pair style lj/cut from restart
  restoring bond style harmonic from restart
  restoring angle style hybrid from restart
  restoring dihedral style harmonic from restart
  366 atoms
  408 bonds
  792 angles
  1080 dihedrals
Finding 1-2 1-3 1-4 neighbors ...
  special bond factors lj:    0        0        1       
  special bond factors coul:  0        0        1       
     4 = max # of 1-2 neighbors
    10 = max # of 1-3 neighbors
    14 = max # of special neighbors
  special bonds CPU = 0.000 seconds
  read_restart CPU = 0.002 seconds
include ./input/angles_333-HD-100C-20-VASP.mod
angle_style hybrid fourier cosine/periodic
angle_coeff 1 fourier 157.882480        0.343737        0.374972        0.281246
angle_coeff 2 fourier 221.735285        0.343737        0.374972        0.281246
angle_coeff 3 fourier 114.246973        0.343737        0.374972        0.281246
angle_coeff 4 fourier 90.420412        0.343737        0.374972        0.281246
angle_coeff 5 fourier 75.498766        0.343737        0.374972        0.281246
angle_coeff 6 cosine/periodic 88.853997              -1               3

# Positive deformation

variable delta equal ${up}*${len0}
variable delta equal 0.02*${len0}
variable delta equal 0.02*15.7115527120224
variable deltaxy equal ${up}*xy
variable deltaxy equal 0.02*xy
variable deltaxz equal ${up}*xz
variable deltaxz equal 0.02*xz
variable deltayz equal ${up}*yz
variable deltayz equal 0.02*yz
if "${dir} == 1" then    "change_box all x delta 0 ${delta} xy delta ${deltaxy} xz delta ${deltaxz} remap units box"
change_box all x delta 0 ${delta} xy delta ${deltaxy} xz delta ${deltaxz} remap units box
change_box all x delta 0 0.314231054240448 xy delta ${deltaxy} xz delta ${deltaxz} remap units box
change_box all x delta 0 0.314231054240448 xy delta -0.167419266774226 xz delta ${deltaxz} remap units box
change_box all x delta 0 0.314231054240448 xy delta -0.167419266774226 xz delta 0.012459430762607 remap units box
Changing box ...
WARNING: Triclinic box skew is large. LAMMPS will run inefficiently. (src/domain.cpp:221)
  triclinic box = (-0.10145586 -0.095204063 -0.092228589) to (15.924328 13.51759 17.001252) with tilt (-8.3709633 0.62297154 -0.65614249)
WARNING: Triclinic box skew is large. LAMMPS will run inefficiently. (src/domain.cpp:221)
  triclinic box = (-0.10145586 -0.095204063 -0.092228589) to (15.924328 13.51759 17.001252) with tilt (-8.5383826 0.62297154 -0.65614249)
WARNING: Triclinic box skew is large. LAMMPS will run inefficiently. (src/domain.cpp:221)
  triclinic box = (-0.10145586 -0.095204063 -0.092228589) to (15.924328 13.51759 17.001252) with tilt (-8.5383826 0.63543097 -0.65614249)
if "${dir} == 2" then    "change_box all y delta 0 ${delta} yz delta ${deltayz} remap units box"
if "${dir} == 3" then    "change_box all z delta 0 ${delta} remap units box"
if "${dir} == 4" then    "change_box all yz delta ${delta} remap units box"
if "${dir} == 5" then    "change_box all xz delta ${delta} remap units box"
if "${dir} == 6" then    "change_box all xy delta ${delta} remap units box"

# Relax atoms positions

minimize ${etol} ${ftol} ${maxiter} ${maxeval}
minimize 0 ${ftol} ${maxiter} ${maxeval}
minimize 0 1e-10 ${maxiter} ${maxeval}
minimize 0 1e-10 100000 ${maxeval}
minimize 0 1e-10 100000 100000
Generated 6 of 6 mixed pair_coeff terms from arithmetic mixing rule
Neighbor list info ...
  update: every = 1 steps, delay = 0 steps, check = yes
  max neighbors/atom: 2000, page size: 100000
  master list distance cutoff = 7
  ghost atom cutoff = 7
  binsize = 3.5, bins = 8 5 5
  1 neighbor lists, perpetual/occasional/extra = 1 0 0
  (1) pair lj/cut, perpetual
      attributes: half, newton on
      pair build: half/bin/newton/tri
      stencil: half/bin/3d/tri
      bin: standard
WARNING: Inconsistent image flags
For more information see https://docs.lammps.org/err0027 (src/domain.cpp:1052)
Per MPI rank memory allocation (min/avg/max) = 19.54 | 19.54 | 19.54 Mbytes
   Step          Temp          E_pair         E_mol          TotEng         Press     
    250125   303.46893     -346.52266      1468.8867      1452.5369     -29646.355    
    250148   303.46893     -400.47718      1182.7661      1112.4618     -14938.976    
Loop time of 0.0208836 on 1 procs for 23 steps with 366 atoms

100.0% CPU use with 1 MPI tasks x 1 OpenMP threads

Minimization stats:
  Stopping criterion = linesearch alpha is zero
  Energy initial, next-to-last, final = 
      1122.36404982105   782.288917746318   782.288917746318
  Force two-norm initial, final = 701.90667 21.767222
  Force max component initial, final = 81.396472 2.6802448
  Final line search alpha, max atom move = 1.7699062e-11 4.7437819e-11
  Iterations, force evaluations = 23 103

MPI task timing breakdown:
Section |  min time  |  avg time  |  max time  |%varavg| %total
---------------------------------------------------------------
Pair    | 0.01582    | 0.01582    | 0.01582    |   0.0 | 75.75
Bond    | 0.0042531  | 0.0042531  | 0.0042531  |   0.0 | 20.37
Neigh   | 0          | 0          | 0          |   0.0 |  0.00
Comm    | 0.00047853 | 0.00047853 | 0.00047853 |   0.0 |  2.29
Output  | 0          | 0          | 0          |   0.0 |  0.00
Modify  | 0          | 0          | 0          |   0.0 |  0.00
Other   |            | 0.0003319  |            |       |  1.59

Nlocal:            366 ave         366 max         366 min
Histogram: 1 0 0 0 0 0 0 0 0 0
Nghost:           2422 ave        2422 max        2422 min
Histogram: 1 0 0 0 0 0 0 0 0 0
Neighs:          24504 ave       24504 max       24504 min
Histogram: 1 0 0 0 0 0 0 0 0 0

Total # of neighbors = 24504
Ave neighs/atom = 66.95082
Ave special neighs/atom = 6.557377
Neighbor list builds = 0
Dangerous builds = 0

# Obtain new stress tensor

variable tmp equal pe
variable e1 equal ${tmp}
variable e1 equal 782.288917746318
variable tmp equal press
variable p1 equal ${tmp}
variable p1 equal -14938.9755515138
variable tmp equal pxx
variable pxx1 equal ${tmp}
variable pxx1 equal -23551.5346490677
variable tmp equal pyy
variable pyy1 equal ${tmp}
variable pyy1 equal -6486.42963611369
variable tmp equal pzz
variable pzz1 equal ${tmp}
variable pzz1 equal -14778.9623693601
variable tmp equal pxy
variable pxy1 equal ${tmp}
variable pxy1 equal 4166.23597390482
variable tmp equal pxz
variable pxz1 equal ${tmp}
variable pxz1 equal -8822.95590137954
variable tmp equal pyz
variable pyz1 equal ${tmp}
variable pyz1 equal -6271.60721452479

# Compute elastic constant from pressure tensor

variable C1pos equal ${d1}
variable C1pos equal 140.557774916695
variable C2pos equal ${d2}
variable C2pos equal 61.4490447974102
variable C3pos equal ${d3}
variable C3pos equal 78.660598490589
variable C4pos equal ${d4}
variable C4pos equal 6.90968802286075
variable C5pos equal ${d5}
variable C5pos equal 18.5149265941857
variable C6pos equal ${d6}
variable C6pos equal -14.9701165832884

# Combine positive and negative

variable C1${dir} equal 0.5*(${C1neg}+${C1pos})
variable C11 equal 0.5*(${C1neg}+${C1pos})
variable C11 equal 0.5*(140.084119071819+${C1pos})
variable C11 equal 0.5*(140.084119071819+140.557774916695)
variable C2${dir} equal 0.5*(${C2neg}+${C2pos})
variable C21 equal 0.5*(${C2neg}+${C2pos})
variable C21 equal 0.5*(47.2635359381877+${C2pos})
variable C21 equal 0.5*(47.2635359381877+61.4490447974102)
variable C3${dir} equal 0.5*(${C3neg}+${C3pos})
variable C31 equal 0.5*(${C3neg}+${C3pos})
variable C31 equal 0.5*(26.2628494046045+${C3pos})
variable C31 equal 0.5*(26.2628494046045+78.660598490589)
variable C4${dir} equal 0.5*(${C4neg}+${C4pos})
variable C41 equal 0.5*(${C4neg}+${C4pos})
variable C41 equal 0.5*(-8.28127554985335+${C4pos})
variable C41 equal 0.5*(-8.28127554985335+6.90968802286075)
variable C5${dir} equal 0.5*(${C5neg}+${C5pos})
variable C51 equal 0.5*(${C5neg}+${C5pos})
variable C51 equal 0.5*(-13.0826364154841+${C5pos})
variable C51 equal 0.5*(-13.0826364154841+18.5149265941857)
variable C6${dir} equal 0.5*(${C6neg}+${C6pos})
variable C61 equal 0.5*(${C6neg}+${C6pos})
variable C61 equal 0.5*(27.5598071227965+${C6pos})
variable C61 equal 0.5*(27.5598071227965+-14.9701165832884)

# Delete dir to make sure it is not reused

variable dir delete

# uyy Perturbation

variable dir equal 2
include ./input/displace_333-HD-100C-20-VASP.mod
if "${dir} == 1" then    "variable len0 equal ${lx0}"
if "${dir} == 2" then    "variable len0 equal ${ly0}"
variable len0 equal ${ly0}
variable len0 equal 13.6127941268845
if "${dir} == 3" then    "variable len0 equal ${lz0}"
if "${dir} == 4" then    "variable len0 equal ${lz0}"
if "${dir} == 5" then    "variable len0 equal ${lz0}"
if "${dir} == 6" then    "variable len0 equal ${ly0}"

# Reset box and simulation parameters

clear
OMP_NUM_THREADS environment is not set. Defaulting to 1 thread.
  using 1 OpenMP thread(s) per MPI task
box tilt large

The 'box' command has been removed and will be ignored

read_restart restart_333-HD-100C-20-VASP.equil
Reading restart file ...
  restart file = 10 Sep 2025, LAMMPS = 10 Sep 2025
  restoring atom style full from restart
  triclinic box = (-0.10145586 -0.095204063 -0.092228589) to (15.610097 13.51759 17.001252) with tilt (-8.3709633 0.62297154 -0.65614249)
WARNING: Triclinic box skew is large. LAMMPS will run inefficiently. (src/domain.cpp:221)
  1 by 1 by 1 MPI processor grid
  restoring pair style lj/cut from restart
  restoring bond style harmonic from restart
  restoring angle style hybrid from restart
  restoring dihedral style harmonic from restart
  366 atoms
  408 bonds
  792 angles
  1080 dihedrals
Finding 1-2 1-3 1-4 neighbors ...
  special bond factors lj:    0        0        1       
  special bond factors coul:  0        0        1       
     4 = max # of 1-2 neighbors
    10 = max # of 1-3 neighbors
    14 = max # of special neighbors
  special bonds CPU = 0.000 seconds
  read_restart CPU = 0.001 seconds
include ./input/angles_333-HD-100C-20-VASP.mod
angle_style hybrid fourier cosine/periodic
angle_coeff 1 fourier 157.882480        0.343737        0.374972        0.281246
angle_coeff 2 fourier 221.735285        0.343737        0.374972        0.281246
angle_coeff 3 fourier 114.246973        0.343737        0.374972        0.281246
angle_coeff 4 fourier 90.420412        0.343737        0.374972        0.281246
angle_coeff 5 fourier 75.498766        0.343737        0.374972        0.281246
angle_coeff 6 cosine/periodic 88.853997              -1               3

# Negative deformation

variable delta equal -${up}*${len0}
variable delta equal -0.02*${len0}
variable delta equal -0.02*13.6127941268845
variable deltaxy equal -${up}*xy
variable deltaxy equal -0.02*xy
variable deltaxz equal -${up}*xz
variable deltaxz equal -0.02*xz
variable deltayz equal -${up}*yz
variable deltayz equal -0.02*yz
if "${dir} == 1" then    "change_box all x delta 0 ${delta} xy delta ${deltaxy} xz delta ${deltaxz} remap units box"
if "${dir} == 2" then    "change_box all y delta 0 ${delta} yz delta ${deltayz} remap units box"
change_box all y delta 0 ${delta} yz delta ${deltayz} remap units box
change_box all y delta 0 -0.27225588253769 yz delta ${deltayz} remap units box
change_box all y delta 0 -0.27225588253769 yz delta 0.0131228497728013 remap units box
Changing box ...
WARNING: Triclinic box skew is large. LAMMPS will run inefficiently. (src/domain.cpp:221)
  triclinic box = (-0.10145586 -0.095204063 -0.092228589) to (15.610097 13.245334 17.001252) with tilt (-8.3709633 0.62297154 -0.65614249)
WARNING: Triclinic box skew is large. LAMMPS will run inefficiently. (src/domain.cpp:221)
  triclinic box = (-0.10145586 -0.095204063 -0.092228589) to (15.610097 13.245334 17.001252) with tilt (-8.3709633 0.62297154 -0.64301964)
if "${dir} == 3" then    "change_box all z delta 0 ${delta} remap units box"
if "${dir} == 4" then    "change_box all yz delta ${delta} remap units box"
if "${dir} == 5" then    "change_box all xz delta ${delta} remap units box"
if "${dir} == 6" then    "change_box all xy delta ${delta} remap units box"

# Relax atoms positions

minimize ${etol} ${ftol} ${maxiter} ${maxeval}
minimize 0 ${ftol} ${maxiter} ${maxeval}
minimize 0 1e-10 ${maxiter} ${maxeval}
minimize 0 1e-10 100000 ${maxeval}
minimize 0 1e-10 100000 100000
Generated 6 of 6 mixed pair_coeff terms from arithmetic mixing rule
Neighbor list info ...
  update: every = 1 steps, delay = 0 steps, check = yes
  max neighbors/atom: 2000, page size: 100000
  master list distance cutoff = 7
  ghost atom cutoff = 7
  binsize = 3.5, bins = 8 4 5
  1 neighbor lists, perpetual/occasional/extra = 1 0 0
  (1) pair lj/cut, perpetual
      attributes: half, newton on
      pair build: half/bin/newton/tri
      stencil: half/bin/3d/tri
      bin: standard
WARNING: Inconsistent image flags
For more information see https://docs.lammps.org/err0027 (src/domain.cpp:1052)
Per MPI rank memory allocation (min/avg/max) = 19.54 | 19.54 | 19.54 Mbytes
   Step          Temp          E_pair         E_mol          TotEng         Press     
    250125   303.46893     -261.47618      1384.3847      1453.0814      36908.376    
    250159   303.46893     -317.23798      1098.2052      1111.1401      18079.192    
Loop time of 0.0264424 on 1 procs for 34 steps with 366 atoms

100.0% CPU use with 1 MPI tasks x 1 OpenMP threads

Minimization stats:
  Stopping criterion = linesearch alpha is zero
  Energy initial, next-to-last, final = 
      1122.90850310665   780.967251947068   780.967251947068
  Force two-norm initial, final = 673.86779 12.166176
  Force max component initial, final = 69.776582 1.5942587
  Final line search alpha, max atom move = 5.2997839e-11 8.4492269e-11
  Iterations, force evaluations = 34 123

MPI task timing breakdown:
Section |  min time  |  avg time  |  max time  |%varavg| %total
---------------------------------------------------------------
Pair    | 0.020269   | 0.020269   | 0.020269   |   0.0 | 76.65
Bond    | 0.0051583  | 0.0051583  | 0.0051583  |   0.0 | 19.51
Neigh   | 0          | 0          | 0          |   0.0 |  0.00
Comm    | 0.00059683 | 0.00059683 | 0.00059683 |   0.0 |  2.26
Output  | 0          | 0          | 0          |   0.0 |  0.00
Modify  | 0          | 0          | 0          |   0.0 |  0.00
Other   |            | 0.0004184  |            |       |  1.58

Nlocal:            366 ave         366 max         366 min
Histogram: 1 0 0 0 0 0 0 0 0 0
Nghost:           2493 ave        2493 max        2493 min
Histogram: 1 0 0 0 0 0 0 0 0 0
Neighs:          25571 ave       25571 max       25571 min
Histogram: 1 0 0 0 0 0 0 0 0 0

Total # of neighbors = 25571
Ave neighs/atom = 69.86612
Ave special neighs/atom = 6.557377
Neighbor list builds = 0
Dangerous builds = 0

# Obtain new stress tensor

variable tmp equal pxx
variable pxx1 equal ${tmp}
variable pxx1 equal 14186.7200061261
variable tmp equal pyy
variable pyy1 equal ${tmp}
variable pyy1 equal 34287.2106241636
variable tmp equal pzz
variable pzz1 equal ${tmp}
variable pzz1 equal 5763.64489482799
variable tmp equal pxy
variable pxy1 equal ${tmp}
variable pxy1 equal 6807.52040396311
variable tmp equal pxz
variable pxz1 equal ${tmp}
variable pxz1 equal -9718.67695533534
variable tmp equal pyz
variable pyz1 equal ${tmp}
variable pyz1 equal -4564.97886205697

# Compute elastic constant from pressure tensor

variable C1neg equal ${d1}
variable C1neg equal 48.1334983592741
variable C2neg equal ${d2}
variable C2neg equal 142.419156503976
variable C3neg equal ${d3}
variable C3neg equal 24.0524378303515
variable C4neg equal ${d4}
variable C4neg equal 1.62345373947835
variable C5neg equal ${d5}
variable C5neg equal -22.9935318639647
variable C6neg equal ${d6}
variable C6neg equal 28.1765387335799

# Reset box and simulation parameters

clear
OMP_NUM_THREADS environment is not set. Defaulting to 1 thread.
  using 1 OpenMP thread(s) per MPI task
box tilt large

The 'box' command has been removed and will be ignored

read_restart restart_333-HD-100C-20-VASP.equil
Reading restart file ...
  restart file = 10 Sep 2025, LAMMPS = 10 Sep 2025
  restoring atom style full from restart
  triclinic box = (-0.10145586 -0.095204063 -0.092228589) to (15.610097 13.51759 17.001252) with tilt (-8.3709633 0.62297154 -0.65614249)
WARNING: Triclinic box skew is large. LAMMPS will run inefficiently. (src/domain.cpp:221)
  1 by 1 by 1 MPI processor grid
  restoring pair style lj/cut from restart
  restoring bond style harmonic from restart
  restoring angle style hybrid from restart
  restoring dihedral style harmonic from restart
  366 atoms
  408 bonds
  792 angles
  1080 dihedrals
Finding 1-2 1-3 1-4 neighbors ...
  special bond factors lj:    0        0        1       
  special bond factors coul:  0        0        1       
     4 = max # of 1-2 neighbors
    10 = max # of 1-3 neighbors
    14 = max # of special neighbors
  special bonds CPU = 0.000 seconds
  read_restart CPU = 0.001 seconds
include ./input/angles_333-HD-100C-20-VASP.mod
angle_style hybrid fourier cosine/periodic
angle_coeff 1 fourier 157.882480        0.343737        0.374972        0.281246
angle_coeff 2 fourier 221.735285        0.343737        0.374972        0.281246
angle_coeff 3 fourier 114.246973        0.343737        0.374972        0.281246
angle_coeff 4 fourier 90.420412        0.343737        0.374972        0.281246
angle_coeff 5 fourier 75.498766        0.343737        0.374972        0.281246
angle_coeff 6 cosine/periodic 88.853997              -1               3

# Positive deformation

variable delta equal ${up}*${len0}
variable delta equal 0.02*${len0}
variable delta equal 0.02*13.6127941268845
variable deltaxy equal ${up}*xy
variable deltaxy equal 0.02*xy
variable deltaxz equal ${up}*xz
variable deltaxz equal 0.02*xz
variable deltayz equal ${up}*yz
variable deltayz equal 0.02*yz
if "${dir} == 1" then    "change_box all x delta 0 ${delta} xy delta ${deltaxy} xz delta ${deltaxz} remap units box"
if "${dir} == 2" then    "change_box all y delta 0 ${delta} yz delta ${deltayz} remap units box"
change_box all y delta 0 ${delta} yz delta ${deltayz} remap units box
change_box all y delta 0 0.27225588253769 yz delta ${deltayz} remap units box
change_box all y delta 0 0.27225588253769 yz delta -0.0131228497728013 remap units box
Changing box ...
WARNING: Triclinic box skew is large. LAMMPS will run inefficiently. (src/domain.cpp:221)
  triclinic box = (-0.10145586 -0.095204063 -0.092228589) to (15.610097 13.789846 17.001252) with tilt (-8.3709633 0.62297154 -0.65614249)
WARNING: Triclinic box skew is large. LAMMPS will run inefficiently. (src/domain.cpp:221)
  triclinic box = (-0.10145586 -0.095204063 -0.092228589) to (15.610097 13.789846 17.001252) with tilt (-8.3709633 0.62297154 -0.66926534)
if "${dir} == 3" then    "change_box all z delta 0 ${delta} remap units box"
if "${dir} == 4" then    "change_box all yz delta ${delta} remap units box"
if "${dir} == 5" then    "change_box all xz delta ${delta} remap units box"
if "${dir} == 6" then    "change_box all xy delta ${delta} remap units box"

# Relax atoms positions

minimize ${etol} ${ftol} ${maxiter} ${maxeval}
minimize 0 ${ftol} ${maxiter} ${maxeval}
minimize 0 1e-10 ${maxiter} ${maxeval}
minimize 0 1e-10 100000 ${maxeval}
minimize 0 1e-10 100000 100000
Generated 6 of 6 mixed pair_coeff terms from arithmetic mixing rule
Neighbor list info ...
  update: every = 1 steps, delay = 0 steps, check = yes
  max neighbors/atom: 2000, page size: 100000
  master list distance cutoff = 7
  ghost atom cutoff = 7
  binsize = 3.5, bins = 8 5 5
  1 neighbor lists, perpetual/occasional/extra = 1 0 0
  (1) pair lj/cut, perpetual
      attributes: half, newton on
      pair build: half/bin/newton/tri
      stencil: half/bin/3d/tri
      bin: standard
WARNING: Inconsistent image flags
For more information see https://docs.lammps.org/err0027 (src/domain.cpp:1052)
Per MPI rank memory allocation (min/avg/max) = 19.54 | 19.54 | 19.54 Mbytes
   Step          Temp          E_pair         E_mol          TotEng         Press     
    250125   303.46893     -342.73031      1460.3974      1447.84       -27941.52     
    250162   303.46893     -402.56308      1181.5157      1109.1255     -15502.366    
Loop time of 0.026525 on 1 procs for 37 steps with 366 atoms

100.0% CPU use with 1 MPI tasks x 1 OpenMP threads

Minimization stats:
  Stopping criterion = linesearch alpha is zero
  Energy initial, next-to-last, final = 
      1117.66707572385    778.95263667319    778.95263667319
  Force two-norm initial, final = 710.12717 11.077263
  Force max component initial, final = 81.300163 1.7045786
  Final line search alpha, max atom move = 9.3715529e-11 1.5974548e-10
  Iterations, force evaluations = 37 129

MPI task timing breakdown:
Section |  min time  |  avg time  |  max time  |%varavg| %total
---------------------------------------------------------------
Pair    | 0.020058   | 0.020058   | 0.020058   |   0.0 | 75.62
Bond    | 0.0054116  | 0.0054116  | 0.0054116  |   0.0 | 20.40
Neigh   | 0          | 0          | 0          |   0.0 |  0.00
Comm    | 0.00060031 | 0.00060031 | 0.00060031 |   0.0 |  2.26
Output  | 0          | 0          | 0          |   0.0 |  0.00
Modify  | 0          | 0          | 0          |   0.0 |  0.00
Other   |            | 0.000455   |            |       |  1.72

Nlocal:            366 ave         366 max         366 min
Histogram: 1 0 0 0 0 0 0 0 0 0
Nghost:           2402 ave        2402 max        2402 min
Histogram: 1 0 0 0 0 0 0 0 0 0
Neighs:          24499 ave       24499 max       24499 min
Histogram: 1 0 0 0 0 0 0 0 0 0

Total # of neighbors = 24499
Ave neighs/atom = 66.937158
Ave special neighs/atom = 6.557377
Neighbor list builds = 0
Dangerous builds = 0

# Obtain new stress tensor

variable tmp equal pe
variable e1 equal ${tmp}
variable e1 equal 778.95263667319
variable tmp equal press
variable p1 equal ${tmp}
variable p1 equal -15502.3659897287
variable tmp equal pxx
variable pxx1 equal ${tmp}
variable pxx1 equal -6848.00394989786
variable tmp equal pyy
variable pyy1 equal ${tmp}
variable pyy1 equal -23856.0582961936
variable tmp equal pzz
variable pzz1 equal ${tmp}
variable pzz1 equal -15803.0357230947
variable tmp equal pxy
variable pxy1 equal ${tmp}
variable pxy1 equal 3832.11797942964
variable tmp equal pxz
variable pxz1 equal ${tmp}
variable pxz1 equal -7214.2468611865
variable tmp equal pyz
variable pyz1 equal ${tmp}
variable pyz1 equal -7855.03903936167

# Compute elastic constant from pressure tensor

variable C1pos equal ${d1}
variable C1pos equal 57.0401214208457
variable C2pos equal ${d2}
variable C2pos equal 148.29718809781
variable C3pos equal ${d3}
variable C3pos equal 83.780965259262
variable C4pos equal ${d4}
variable C4pos equal 14.8268471470452
variable C5pos equal ${d5}
variable C5pos equal 10.4713813932205
variable C6pos equal ${d6}
variable C6pos equal -13.2995266109125

# Combine positive and negative

variable C1${dir} equal 0.5*(${C1neg}+${C1pos})
variable C12 equal 0.5*(${C1neg}+${C1pos})
variable C12 equal 0.5*(48.1334983592741+${C1pos})
variable C12 equal 0.5*(48.1334983592741+57.0401214208457)
variable C2${dir} equal 0.5*(${C2neg}+${C2pos})
variable C22 equal 0.5*(${C2neg}+${C2pos})
variable C22 equal 0.5*(142.419156503976+${C2pos})
variable C22 equal 0.5*(142.419156503976+148.29718809781)
variable C3${dir} equal 0.5*(${C3neg}+${C3pos})
variable C32 equal 0.5*(${C3neg}+${C3pos})
variable C32 equal 0.5*(24.0524378303515+${C3pos})
variable C32 equal 0.5*(24.0524378303515+83.780965259262)
variable C4${dir} equal 0.5*(${C4neg}+${C4pos})
variable C42 equal 0.5*(${C4neg}+${C4pos})
variable C42 equal 0.5*(1.62345373947835+${C4pos})
variable C42 equal 0.5*(1.62345373947835+14.8268471470452)
variable C5${dir} equal 0.5*(${C5neg}+${C5pos})
variable C52 equal 0.5*(${C5neg}+${C5pos})
variable C52 equal 0.5*(-22.9935318639647+${C5pos})
variable C52 equal 0.5*(-22.9935318639647+10.4713813932205)
variable C6${dir} equal 0.5*(${C6neg}+${C6pos})
variable C62 equal 0.5*(${C6neg}+${C6pos})
variable C62 equal 0.5*(28.1765387335799+${C6pos})
variable C62 equal 0.5*(28.1765387335799+-13.2995266109125)

# Delete dir to make sure it is not reused

variable dir delete

# uzz Perturbation

variable dir equal 3
include ./input/displace_333-HD-100C-20-VASP.mod
if "${dir} == 1" then    "variable len0 equal ${lx0}"
if "${dir} == 2" then    "variable len0 equal ${ly0}"
if "${dir} == 3" then    "variable len0 equal ${lz0}"
variable len0 equal ${lz0}
variable len0 equal 17.093480178614
if "${dir} == 4" then    "variable len0 equal ${lz0}"
if "${dir} == 5" then    "variable len0 equal ${lz0}"
if "${dir} == 6" then    "variable len0 equal ${ly0}"

# Reset box and simulation parameters

clear
OMP_NUM_THREADS environment is not set. Defaulting to 1 thread.
  using 1 OpenMP thread(s) per MPI task
box tilt large

The 'box' command has been removed and will be ignored

read_restart restart_333-HD-100C-20-VASP.equil
Reading restart file ...
  restart file = 10 Sep 2025, LAMMPS = 10 Sep 2025
  restoring atom style full from restart
  triclinic box = (-0.10145586 -0.095204063 -0.092228589) to (15.610097 13.51759 17.001252) with tilt (-8.3709633 0.62297154 -0.65614249)
WARNING: Triclinic box skew is large. LAMMPS will run inefficiently. (src/domain.cpp:221)
  1 by 1 by 1 MPI processor grid
  restoring pair style lj/cut from restart
  restoring bond style harmonic from restart
  restoring angle style hybrid from restart
  restoring dihedral style harmonic from restart
  366 atoms
  408 bonds
  792 angles
  1080 dihedrals
Finding 1-2 1-3 1-4 neighbors ...
  special bond factors lj:    0        0        1       
  special bond factors coul:  0        0        1       
     4 = max # of 1-2 neighbors
    10 = max # of 1-3 neighbors
    14 = max # of special neighbors
  special bonds CPU = 0.000 seconds
  read_restart CPU = 0.001 seconds
include ./input/angles_333-HD-100C-20-VASP.mod
angle_style hybrid fourier cosine/periodic
angle_coeff 1 fourier 157.882480        0.343737        0.374972        0.281246
angle_coeff 2 fourier 221.735285        0.343737        0.374972        0.281246
angle_coeff 3 fourier 114.246973        0.343737        0.374972        0.281246
angle_coeff 4 fourier 90.420412        0.343737        0.374972        0.281246
angle_coeff 5 fourier 75.498766        0.343737        0.374972        0.281246
angle_coeff 6 cosine/periodic 88.853997              -1               3

# Negative deformation

variable delta equal -${up}*${len0}
variable delta equal -0.02*${len0}
variable delta equal -0.02*17.093480178614
variable deltaxy equal -${up}*xy
variable deltaxy equal -0.02*xy
variable deltaxz equal -${up}*xz
variable deltaxz equal -0.02*xz
variable deltayz equal -${up}*yz
variable deltayz equal -0.02*yz
if "${dir} == 1" then    "change_box all x delta 0 ${delta} xy delta ${deltaxy} xz delta ${deltaxz} remap units box"
if "${dir} == 2" then    "change_box all y delta 0 ${delta} yz delta ${deltayz} remap units box"
if "${dir} == 3" then    "change_box all z delta 0 ${delta} remap units box"
change_box all z delta 0 ${delta} remap units box
change_box all z delta 0 -0.34186960357228 remap units box
Changing box ...
WARNING: Triclinic box skew is large. LAMMPS will run inefficiently. (src/domain.cpp:221)
  triclinic box = (-0.10145586 -0.095204063 -0.092228589) to (15.610097 13.51759 16.659382) with tilt (-8.3709633 0.62297154 -0.65614249)
if "${dir} == 4" then    "change_box all yz delta ${delta} remap units box"
if "${dir} == 5" then    "change_box all xz delta ${delta} remap units box"
if "${dir} == 6" then    "change_box all xy delta ${delta} remap units box"

# Relax atoms positions

minimize ${etol} ${ftol} ${maxiter} ${maxeval}
minimize 0 ${ftol} ${maxiter} ${maxeval}
minimize 0 1e-10 ${maxiter} ${maxeval}
minimize 0 1e-10 100000 ${maxeval}
minimize 0 1e-10 100000 100000
Generated 6 of 6 mixed pair_coeff terms from arithmetic mixing rule
Neighbor list info ...
  update: every = 1 steps, delay = 0 steps, check = yes
  max neighbors/atom: 2000, page size: 100000
  master list distance cutoff = 7
  ghost atom cutoff = 7
  binsize = 3.5, bins = 8 5 5
  1 neighbor lists, perpetual/occasional/extra = 1 0 0
  (1) pair lj/cut, perpetual
      attributes: half, newton on
      pair build: half/bin/newton/tri
      stencil: half/bin/3d/tri
      bin: standard
WARNING: Inconsistent image flags
For more information see https://docs.lammps.org/err0027 (src/domain.cpp:1052)
Per MPI rank memory allocation (min/avg/max) = 19.54 | 19.54 | 19.54 Mbytes
   Step          Temp          E_pair         E_mol          TotEng         Press     
    250125   303.46893     -258.07261      1376.8655      1448.9657      38513.902    
    250171   303.46893     -320.51934      1088.7139      1098.3674      16949.937    
Loop time of 0.030921 on 1 procs for 46 steps with 366 atoms

100.0% CPU use with 1 MPI tasks x 1 OpenMP threads

Minimization stats:
  Stopping criterion = linesearch alpha is zero
  Energy initial, next-to-last, final = 
      1118.79284495113   768.194530031138   768.194530031138
  Force two-norm initial, final = 701.72591 10.108521
  Force max component initial, final = 85.832621 1.2394519
  Final line search alpha, max atom move = 1.1730227e-10 1.4539053e-10
  Iterations, force evaluations = 46 147

MPI task timing breakdown:
Section |  min time  |  avg time  |  max time  |%varavg| %total
---------------------------------------------------------------
Pair    | 0.023571   | 0.023571   | 0.023571   |   0.0 | 76.23
Bond    | 0.0061425  | 0.0061425  | 0.0061425  |   0.0 | 19.87
Neigh   | 0          | 0          | 0          |   0.0 |  0.00
Comm    | 0.00070611 | 0.00070611 | 0.00070611 |   0.0 |  2.28
Output  | 0          | 0          | 0          |   0.0 |  0.00
Modify  | 0          | 0          | 0          |   0.0 |  0.00
Other   |            | 0.0005009  |            |       |  1.62

Nlocal:            366 ave         366 max         366 min
Histogram: 1 0 0 0 0 0 0 0 0 0
Nghost:           2472 ave        2472 max        2472 min
Histogram: 1 0 0 0 0 0 0 0 0 0
Neighs:          25546 ave       25546 max       25546 min
Histogram: 1 0 0 0 0 0 0 0 0 0

Total # of neighbors = 25546
Ave neighs/atom = 69.797814
Ave special neighs/atom = 6.557377
Neighbor list builds = 0
Dangerous builds = 0

# Obtain new stress tensor

variable tmp equal pxx
variable pxx1 equal ${tmp}
variable pxx1 equal 14443.7022265992
variable tmp equal pyy
variable pyy1 equal ${tmp}
variable pyy1 equal 15669.8545300374
variable tmp equal pzz
variable pzz1 equal ${tmp}
variable pzz1 equal 20736.2530898514
variable tmp equal pxy
variable pxy1 equal ${tmp}
variable pxy1 equal 5631.51025216217
variable tmp equal pxz
variable pxz1 equal ${tmp}
variable pxz1 equal -9098.67072119183
variable tmp equal pyz
variable pyz1 equal ${tmp}
variable pyz1 equal -5097.06803851427

# Compute elastic constant from pressure tensor

variable C1neg equal ${d1}
variable C1neg equal 49.4184094616396
variable C2neg equal ${d2}
variable C2neg equal 49.3323760333452
variable C3neg equal ${d3}
variable C3neg equal 98.9154788054685
variable C4neg equal ${d4}
variable C4neg equal -1.03699214280815
variable C5neg equal ${d5}
variable C5neg equal -19.8935006932471
variable C6neg equal ${d6}
variable C6neg equal 22.2964879745752

# Reset box and simulation parameters

clear
OMP_NUM_THREADS environment is not set. Defaulting to 1 thread.
  using 1 OpenMP thread(s) per MPI task
box tilt large

The 'box' command has been removed and will be ignored

read_restart restart_333-HD-100C-20-VASP.equil
Reading restart file ...
  restart file = 10 Sep 2025, LAMMPS = 10 Sep 2025
  restoring atom style full from restart
  triclinic box = (-0.10145586 -0.095204063 -0.092228589) to (15.610097 13.51759 17.001252) with tilt (-8.3709633 0.62297154 -0.65614249)
WARNING: Triclinic box skew is large. LAMMPS will run inefficiently. (src/domain.cpp:221)
  1 by 1 by 1 MPI processor grid
  restoring pair style lj/cut from restart
  restoring bond style harmonic from restart
  restoring angle style hybrid from restart
  restoring dihedral style harmonic from restart
  366 atoms
  408 bonds
  792 angles
  1080 dihedrals
Finding 1-2 1-3 1-4 neighbors ...
  special bond factors lj:    0        0        1       
  special bond factors coul:  0        0        1       
     4 = max # of 1-2 neighbors
    10 = max # of 1-3 neighbors
    14 = max # of special neighbors
  special bonds CPU = 0.000 seconds
  read_restart CPU = 0.001 seconds
include ./input/angles_333-HD-100C-20-VASP.mod
angle_style hybrid fourier cosine/periodic
angle_coeff 1 fourier 157.882480        0.343737        0.374972        0.281246
angle_coeff 2 fourier 221.735285        0.343737        0.374972        0.281246
angle_coeff 3 fourier 114.246973        0.343737        0.374972        0.281246
angle_coeff 4 fourier 90.420412        0.343737        0.374972        0.281246
angle_coeff 5 fourier 75.498766        0.343737        0.374972        0.281246
angle_coeff 6 cosine/periodic 88.853997              -1               3

# Positive deformation

variable delta equal ${up}*${len0}
variable delta equal 0.02*${len0}
variable delta equal 0.02*17.093480178614
variable deltaxy equal ${up}*xy
variable deltaxy equal 0.02*xy
variable deltaxz equal ${up}*xz
variable deltaxz equal 0.02*xz
variable deltayz equal ${up}*yz
variable deltayz equal 0.02*yz
if "${dir} == 1" then    "change_box all x delta 0 ${delta} xy delta ${deltaxy} xz delta ${deltaxz} remap units box"
if "${dir} == 2" then    "change_box all y delta 0 ${delta} yz delta ${deltayz} remap units box"
if "${dir} == 3" then    "change_box all z delta 0 ${delta} remap units box"
change_box all z delta 0 ${delta} remap units box
change_box all z delta 0 0.34186960357228 remap units box
Changing box ...
WARNING: Triclinic box skew is large. LAMMPS will run inefficiently. (src/domain.cpp:221)
  triclinic box = (-0.10145586 -0.095204063 -0.092228589) to (15.610097 13.51759 17.343121) with tilt (-8.3709633 0.62297154 -0.65614249)
if "${dir} == 4" then    "change_box all yz delta ${delta} remap units box"
if "${dir} == 5" then    "change_box all xz delta ${delta} remap units box"
if "${dir} == 6" then    "change_box all xy delta ${delta} remap units box"

# Relax atoms positions

minimize ${etol} ${ftol} ${maxiter} ${maxeval}
minimize 0 ${ftol} ${maxiter} ${maxeval}
minimize 0 1e-10 ${maxiter} ${maxeval}
minimize 0 1e-10 100000 ${maxeval}
minimize 0 1e-10 100000 100000
Generated 6 of 6 mixed pair_coeff terms from arithmetic mixing rule
Neighbor list info ...
  update: every = 1 steps, delay = 0 steps, check = yes
  max neighbors/atom: 2000, page size: 100000
  master list distance cutoff = 7
  ghost atom cutoff = 7
  binsize = 3.5, bins = 8 5 5
  1 neighbor lists, perpetual/occasional/extra = 1 0 0
  (1) pair lj/cut, perpetual
      attributes: half, newton on
      pair build: half/bin/newton/tri
      stencil: half/bin/3d/tri
      bin: standard
WARNING: Inconsistent image flags
For more information see https://docs.lammps.org/err0027 (src/domain.cpp:1052)
Per MPI rank memory allocation (min/avg/max) = 19.54 | 19.54 | 19.54 Mbytes
   Step          Temp          E_pair         E_mol          TotEng         Press     
    250125   303.46893     -344.81         1468.9312      1454.2941     -29451.422    
    250159   303.46893     -399.35136      1188.1204      1118.9419     -14697.753    
Loop time of 0.02524 on 1 procs for 34 steps with 366 atoms

100.0% CPU use with 1 MPI tasks x 1 OpenMP threads

Minimization stats:
  Stopping criterion = linesearch alpha is zero
  Energy initial, next-to-last, final = 
      1124.12122154321   788.769059060563   788.769059060563
  Force two-norm initial, final = 683.7843 11.508602
  Force max component initial, final = 73.931581 1.3483352
  Final line search alpha, max atom move = 7.4746777e-11 1.0078371e-10
  Iterations, force evaluations = 34 123

MPI task timing breakdown:
Section |  min time  |  avg time  |  max time  |%varavg| %total
---------------------------------------------------------------
Pair    | 0.019058   | 0.019058   | 0.019058   |   0.0 | 75.51
Bond    | 0.0051727  | 0.0051727  | 0.0051727  |   0.0 | 20.49
Neigh   | 0          | 0          | 0          |   0.0 |  0.00
Comm    | 0.00060728 | 0.00060728 | 0.00060728 |   0.0 |  2.41
Output  | 0          | 0          | 0          |   0.0 |  0.00
Modify  | 0          | 0          | 0          |   0.0 |  0.00
Other   |            | 0.000402   |            |       |  1.59

Nlocal:            366 ave         366 max         366 min
Histogram: 1 0 0 0 0 0 0 0 0 0
Nghost:           2432 ave        2432 max        2432 min
Histogram: 1 0 0 0 0 0 0 0 0 0
Neighs:          24508 ave       24508 max       24508 min
Histogram: 1 0 0 0 0 0 0 0 0 0

Total # of neighbors = 24508
Ave neighs/atom = 66.961749
Ave special neighs/atom = 6.557377
Neighbor list builds = 0
Dangerous builds = 0

# Obtain new stress tensor

variable tmp equal pe
variable e1 equal ${tmp}
variable e1 equal 788.769059060563
variable tmp equal press
variable p1 equal ${tmp}
variable p1 equal -14697.7531325852
variable tmp equal pxx
variable pxx1 equal ${tmp}
variable pxx1 equal -7108.82420433613
variable tmp equal pyy
variable pyy1 equal ${tmp}
variable pyy1 equal -6286.36638884765
variable tmp equal pzz
variable pzz1 equal ${tmp}
variable pzz1 equal -30698.0688045719
variable tmp equal pxy
variable pxy1 equal ${tmp}
variable pxy1 equal 4771.11271001595
variable tmp equal pxz
variable pxz1 equal ${tmp}
variable pxz1 equal -7468.08996958987
variable tmp equal pyz
variable pyz1 equal ${tmp}
variable pyz1 equal -7216.25534384012

# Compute elastic constant from pressure tensor

variable C1pos equal ${d1}
variable C1pos equal 58.344222693037
variable C2pos equal ${d2}
variable C2pos equal 60.4487285610801
variable C3pos equal ${d3}
variable C3pos equal 158.256130666648
variable C4pos equal ${d4}
variable C4pos equal 11.6329286694374
variable C5pos equal ${d5}
variable C5pos equal 11.7405969352373
variable C6pos equal ${d6}
variable C6pos equal -17.9945002638441

# Combine positive and negative

variable C1${dir} equal 0.5*(${C1neg}+${C1pos})
variable C13 equal 0.5*(${C1neg}+${C1pos})
variable C13 equal 0.5*(49.4184094616396+${C1pos})
variable C13 equal 0.5*(49.4184094616396+58.344222693037)
variable C2${dir} equal 0.5*(${C2neg}+${C2pos})
variable C23 equal 0.5*(${C2neg}+${C2pos})
variable C23 equal 0.5*(49.3323760333452+${C2pos})
variable C23 equal 0.5*(49.3323760333452+60.4487285610801)
variable C3${dir} equal 0.5*(${C3neg}+${C3pos})
variable C33 equal 0.5*(${C3neg}+${C3pos})
variable C33 equal 0.5*(98.9154788054685+${C3pos})
variable C33 equal 0.5*(98.9154788054685+158.256130666648)
variable C4${dir} equal 0.5*(${C4neg}+${C4pos})
variable C43 equal 0.5*(${C4neg}+${C4pos})
variable C43 equal 0.5*(-1.03699214280815+${C4pos})
variable C43 equal 0.5*(-1.03699214280815+11.6329286694374)
variable C5${dir} equal 0.5*(${C5neg}+${C5pos})
variable C53 equal 0.5*(${C5neg}+${C5pos})
variable C53 equal 0.5*(-19.8935006932471+${C5pos})
variable C53 equal 0.5*(-19.8935006932471+11.7405969352373)
variable C6${dir} equal 0.5*(${C6neg}+${C6pos})
variable C63 equal 0.5*(${C6neg}+${C6pos})
variable C63 equal 0.5*(22.2964879745752+${C6pos})
variable C63 equal 0.5*(22.2964879745752+-17.9945002638441)

# Delete dir to make sure it is not reused

variable dir delete

# uyz Perturbation

variable dir equal 4
include ./input/displace_333-HD-100C-20-VASP.mod
if "${dir} == 1" then    "variable len0 equal ${lx0}"
if "${dir} == 2" then    "variable len0 equal ${ly0}"
if "${dir} == 3" then    "variable len0 equal ${lz0}"
if "${dir} == 4" then    "variable len0 equal ${lz0}"
variable len0 equal ${lz0}
variable len0 equal 17.093480178614
if "${dir} == 5" then    "variable len0 equal ${lz0}"
if "${dir} == 6" then    "variable len0 equal ${ly0}"

# Reset box and simulation parameters

clear
OMP_NUM_THREADS environment is not set. Defaulting to 1 thread.
  using 1 OpenMP thread(s) per MPI task
box tilt large

The 'box' command has been removed and will be ignored

read_restart restart_333-HD-100C-20-VASP.equil
Reading restart file ...
  restart file = 10 Sep 2025, LAMMPS = 10 Sep 2025
  restoring atom style full from restart
  triclinic box = (-0.10145586 -0.095204063 -0.092228589) to (15.610097 13.51759 17.001252) with tilt (-8.3709633 0.62297154 -0.65614249)
WARNING: Triclinic box skew is large. LAMMPS will run inefficiently. (src/domain.cpp:221)
  1 by 1 by 1 MPI processor grid
  restoring pair style lj/cut from restart
  restoring bond style harmonic from restart
  restoring angle style hybrid from restart
  restoring dihedral style harmonic from restart
  366 atoms
  408 bonds
  792 angles
  1080 dihedrals
Finding 1-2 1-3 1-4 neighbors ...
  special bond factors lj:    0        0        1       
  special bond factors coul:  0        0        1       
     4 = max # of 1-2 neighbors
    10 = max # of 1-3 neighbors
    14 = max # of special neighbors
  special bonds CPU = 0.000 seconds
  read_restart CPU = 0.001 seconds
include ./input/angles_333-HD-100C-20-VASP.mod
angle_style hybrid fourier cosine/periodic
angle_coeff 1 fourier 157.882480        0.343737        0.374972        0.281246
angle_coeff 2 fourier 221.735285        0.343737        0.374972        0.281246
angle_coeff 3 fourier 114.246973        0.343737        0.374972        0.281246
angle_coeff 4 fourier 90.420412        0.343737        0.374972        0.281246
angle_coeff 5 fourier 75.498766        0.343737        0.374972        0.281246
angle_coeff 6 cosine/periodic 88.853997              -1               3

# Negative deformation

variable delta equal -${up}*${len0}
variable delta equal -0.02*${len0}
variable delta equal -0.02*17.093480178614
variable deltaxy equal -${up}*xy
variable deltaxy equal -0.02*xy
variable deltaxz equal -${up}*xz
variable deltaxz equal -0.02*xz
variable deltayz equal -${up}*yz
variable deltayz equal -0.02*yz
if "${dir} == 1" then    "change_box all x delta 0 ${delta} xy delta ${deltaxy} xz delta ${deltaxz} remap units box"
if "${dir} == 2" then    "change_box all y delta 0 ${delta} yz delta ${deltayz} remap units box"
if "${dir} == 3" then    "change_box all z delta 0 ${delta} remap units box"
if "${dir} == 4" then    "change_box all yz delta ${delta} remap units box"
change_box all yz delta ${delta} remap units box
change_box all yz delta -0.34186960357228 remap units box
Changing box ...
WARNING: Triclinic box skew is large. LAMMPS will run inefficiently. (src/domain.cpp:221)
  triclinic box = (-0.10145586 -0.095204063 -0.092228589) to (15.610097 13.51759 17.001252) with tilt (-8.3709633 0.62297154 -0.99801209)
if "${dir} == 5" then    "change_box all xz delta ${delta} remap units box"
if "${dir} == 6" then    "change_box all xy delta ${delta} remap units box"

# Relax atoms positions

minimize ${etol} ${ftol} ${maxiter} ${maxeval}
minimize 0 ${ftol} ${maxiter} ${maxeval}
minimize 0 1e-10 ${maxiter} ${maxeval}
minimize 0 1e-10 100000 ${maxeval}
minimize 0 1e-10 100000 100000
Generated 6 of 6 mixed pair_coeff terms from arithmetic mixing rule
Neighbor list info ...
  update: every = 1 steps, delay = 0 steps, check = yes
  max neighbors/atom: 2000, page size: 100000
  master list distance cutoff = 7
  ghost atom cutoff = 7
  binsize = 3.5, bins = 8 5 5
  1 neighbor lists, perpetual/occasional/extra = 1 0 0
  (1) pair lj/cut, perpetual
      attributes: half, newton on
      pair build: half/bin/newton/tri
      stencil: half/bin/3d/tri
      bin: standard
WARNING: Inconsistent image flags
For more information see https://docs.lammps.org/err0027 (src/domain.cpp:1052)
Per MPI rank memory allocation (min/avg/max) = 19.54 | 19.54 | 19.54 Mbytes
   Step          Temp          E_pair         E_mol          TotEng         Press     
    250125   303.46893     -302.41202      1397.7772      1425.538       4321.2875    
    250162   303.46893     -358.30165      1122.6741      1094.5453      1409.1679    
Loop time of 0.0269588 on 1 procs for 37 steps with 366 atoms

100.0% CPU use with 1 MPI tasks x 1 OpenMP threads

Minimization stats:
  Stopping criterion = linesearch alpha is zero
  Energy initial, next-to-last, final = 
      1095.36515749778   764.372397499608   764.372397499608
  Force two-norm initial, final = 675.18941 9.5290221
  Force max component initial, final = 81.620987 1.2740798
  Final line search alpha, max atom move = 7.777977e-11 9.9097636e-11
  Iterations, force evaluations = 37 129

MPI task timing breakdown:
Section |  min time  |  avg time  |  max time  |%varavg| %total
---------------------------------------------------------------
Pair    | 0.020498   | 0.020498   | 0.020498   |   0.0 | 76.03
Bond    | 0.0054232  | 0.0054232  | 0.0054232  |   0.0 | 20.12
Neigh   | 0          | 0          | 0          |   0.0 |  0.00
Comm    | 0.00059765 | 0.00059765 | 0.00059765 |   0.0 |  2.22
Output  | 0          | 0          | 0          |   0.0 |  0.00
Modify  | 0          | 0          | 0          |   0.0 |  0.00
Other   |            | 0.0004402  |            |       |  1.63

Nlocal:            366 ave         366 max         366 min
Histogram: 1 0 0 0 0 0 0 0 0 0
Nghost:           2448 ave        2448 max        2448 min
Histogram: 1 0 0 0 0 0 0 0 0 0
Neighs:          25034 ave       25034 max       25034 min
Histogram: 1 0 0 0 0 0 0 0 0 0

Total # of neighbors = 25034
Ave neighs/atom = 68.398907
Ave special neighs/atom = 6.557377
Neighbor list builds = 0
Dangerous builds = 0

# Obtain new stress tensor

variable tmp equal pxx
variable pxx1 equal ${tmp}
variable pxx1 equal 2964.02275243252
variable tmp equal pyy
variable pyy1 equal ${tmp}
variable pyy1 equal 5762.31900238667
variable tmp equal pzz
variable pzz1 equal ${tmp}
variable pzz1 equal -4498.83807289494
variable tmp equal pxy
variable pxy1 equal ${tmp}
variable pxy1 equal 5627.14108844843
variable tmp equal pxz
variable pxz1 equal ${tmp}
variable pxz1 equal -7671.59661760226
variable tmp equal pyz
variable pyz1 equal ${tmp}
variable pyz1 equal 4600.35724185882

# Compute elastic constant from pressure tensor

variable C1neg equal ${d1}
variable C1neg equal -7.97998790919375
variable C2neg equal ${d2}
variable C2neg equal -0.20530160490845
variable C3neg equal ${d3}
variable C3neg equal -27.2599770082632
variable C4neg equal ${d4}
variable C4neg equal 47.4501342590573
variable C5neg equal ${d5}
variable C5neg equal -12.7581301752993
variable C6neg equal ${d6}
variable C6neg equal 22.2746421560065

# Reset box and simulation parameters

clear
OMP_NUM_THREADS environment is not set. Defaulting to 1 thread.
  using 1 OpenMP thread(s) per MPI task
box tilt large

The 'box' command has been removed and will be ignored

read_restart restart_333-HD-100C-20-VASP.equil
Reading restart file ...
  restart file = 10 Sep 2025, LAMMPS = 10 Sep 2025
  restoring atom style full from restart
  triclinic box = (-0.10145586 -0.095204063 -0.092228589) to (15.610097 13.51759 17.001252) with tilt (-8.3709633 0.62297154 -0.65614249)
WARNING: Triclinic box skew is large. LAMMPS will run inefficiently. (src/domain.cpp:221)
  1 by 1 by 1 MPI processor grid
  restoring pair style lj/cut from restart
  restoring bond style harmonic from restart
  restoring angle style hybrid from restart
  restoring dihedral style harmonic from restart
  366 atoms
  408 bonds
  792 angles
  1080 dihedrals
Finding 1-2 1-3 1-4 neighbors ...
  special bond factors lj:    0        0        1       
  special bond factors coul:  0        0        1       
     4 = max # of 1-2 neighbors
    10 = max # of 1-3 neighbors
    14 = max # of special neighbors
  special bonds CPU = 0.000 seconds
  read_restart CPU = 0.001 seconds
include ./input/angles_333-HD-100C-20-VASP.mod
angle_style hybrid fourier cosine/periodic
angle_coeff 1 fourier 157.882480        0.343737        0.374972        0.281246
angle_coeff 2 fourier 221.735285        0.343737        0.374972        0.281246
angle_coeff 3 fourier 114.246973        0.343737        0.374972        0.281246
angle_coeff 4 fourier 90.420412        0.343737        0.374972        0.281246
angle_coeff 5 fourier 75.498766        0.343737        0.374972        0.281246
angle_coeff 6 cosine/periodic 88.853997              -1               3

# Positive deformation

variable delta equal ${up}*${len0}
variable delta equal 0.02*${len0}
variable delta equal 0.02*17.093480178614
variable deltaxy equal ${up}*xy
variable deltaxy equal 0.02*xy
variable deltaxz equal ${up}*xz
variable deltaxz equal 0.02*xz
variable deltayz equal ${up}*yz
variable deltayz equal 0.02*yz
if "${dir} == 1" then    "change_box all x delta 0 ${delta} xy delta ${deltaxy} xz delta ${deltaxz} remap units box"
if "${dir} == 2" then    "change_box all y delta 0 ${delta} yz delta ${deltayz} remap units box"
if "${dir} == 3" then    "change_box all z delta 0 ${delta} remap units box"
if "${dir} == 4" then    "change_box all yz delta ${delta} remap units box"
change_box all yz delta ${delta} remap units box
change_box all yz delta 0.34186960357228 remap units box
Changing box ...
WARNING: Triclinic box skew is large. LAMMPS will run inefficiently. (src/domain.cpp:221)
  triclinic box = (-0.10145586 -0.095204063 -0.092228589) to (15.610097 13.51759 17.001252) with tilt (-8.3709633 0.62297154 -0.31427289)
if "${dir} == 5" then    "change_box all xz delta ${delta} remap units box"
if "${dir} == 6" then    "change_box all xy delta ${delta} remap units box"

# Relax atoms positions

minimize ${etol} ${ftol} ${maxiter} ${maxeval}
minimize 0 ${ftol} ${maxiter} ${maxeval}
minimize 0 1e-10 ${maxiter} ${maxeval}
minimize 0 1e-10 100000 ${maxeval}
minimize 0 1e-10 100000 100000
Generated 6 of 6 mixed pair_coeff terms from arithmetic mixing rule
Neighbor list info ...
  update: every = 1 steps, delay = 0 steps, check = yes
  max neighbors/atom: 2000, page size: 100000
  master list distance cutoff = 7
  ghost atom cutoff = 7
  binsize = 3.5, bins = 8 4 5
  1 neighbor lists, perpetual/occasional/extra = 1 0 0
  (1) pair lj/cut, perpetual
      attributes: half, newton on
      pair build: half/bin/newton/tri
      stencil: half/bin/3d/tri
      bin: standard
WARNING: Inconsistent image flags
For more information see https://docs.lammps.org/err0027 (src/domain.cpp:1052)
Per MPI rank memory allocation (min/avg/max) = 19.54 | 19.54 | 19.54 Mbytes
   Step          Temp          E_pair         E_mol          TotEng         Press     
    250125   303.46893     -307.71763      1413.8399      1436.2951      2873.0241    
    250147   303.46893     -365.31108      1145.9619      1110.8237      4.7504086    
Loop time of 0.0212371 on 1 procs for 22 steps with 366 atoms

100.0% CPU use with 1 MPI tasks x 1 OpenMP threads

Minimization stats:
  Stopping criterion = linesearch alpha is zero
  Energy initial, next-to-last, final = 
      1106.12221928548   780.650849982547   780.650849982547
  Force two-norm initial, final = 686.65044 24.312286
  Force max component initial, final = 74.371687 2.863972
  Final line search alpha, max atom move = 1.6553738e-11 4.7409443e-11
  Iterations, force evaluations = 22 101

MPI task timing breakdown:
Section |  min time  |  avg time  |  max time  |%varavg| %total
---------------------------------------------------------------
Pair    | 0.016254   | 0.016254   | 0.016254   |   0.0 | 76.53
Bond    | 0.004204   | 0.004204   | 0.004204   |   0.0 | 19.80
Neigh   | 0          | 0          | 0          |   0.0 |  0.00
Comm    | 0.00046805 | 0.00046805 | 0.00046805 |   0.0 |  2.20
Output  | 0          | 0          | 0          |   0.0 |  0.00
Modify  | 0          | 0          | 0          |   0.0 |  0.00
Other   |            | 0.0003115  |            |       |  1.47

Nlocal:            366 ave         366 max         366 min
Histogram: 1 0 0 0 0 0 0 0 0 0
Nghost:           2448 ave        2448 max        2448 min
Histogram: 1 0 0 0 0 0 0 0 0 0
Neighs:          25009 ave       25009 max       25009 min
Histogram: 1 0 0 0 0 0 0 0 0 0

Total # of neighbors = 25009
Ave neighs/atom = 68.330601
Ave special neighs/atom = 6.557377
Neighbor list builds = 0
Dangerous builds = 0

# Obtain new stress tensor

variable tmp equal pe
variable e1 equal ${tmp}
variable e1 equal 780.650849982547
variable tmp equal press
variable p1 equal ${tmp}
variable p1 equal 4.75040860399919
variable tmp equal pxx
variable pxx1 equal ${tmp}
variable pxx1 equal 3749.2833105537
variable tmp equal pyy
variable pyy1 equal ${tmp}
variable pyy1 equal 1738.09563814868
variable tmp equal pzz
variable pzz1 equal ${tmp}
variable pzz1 equal -5473.12772289038
variable tmp equal pxy
variable pxy1 equal ${tmp}
variable pxy1 equal 5119.46483318191
variable tmp equal pxz
variable pxz1 equal ${tmp}
variable pxz1 equal -9170.61048933201
variable tmp equal pyz
variable pyz1 equal ${tmp}
variable pyz1 equal -18608.8597815583

# Compute elastic constant from pressure tensor

variable C1pos equal ${d1}
variable C1pos equal 4.05368511858785
variable C2pos equal ${d2}
variable C2pos equal 20.3264184260984
variable C3pos equal ${d3}
variable C3pos equal 32.1314252582404
variable C4pos equal ${d4}
variable C4pos equal 68.5959508580283
variable C5pos equal ${d5}
variable C5pos equal 20.253199533948
variable C6pos equal ${d6}
variable C6pos equal -19.7362608796738

# Combine positive and negative

variable C1${dir} equal 0.5*(${C1neg}+${C1pos})
variable C14 equal 0.5*(${C1neg}+${C1pos})
variable C14 equal 0.5*(-7.97998790919375+${C1pos})
variable C14 equal 0.5*(-7.97998790919375+4.05368511858785)
variable C2${dir} equal 0.5*(${C2neg}+${C2pos})
variable C24 equal 0.5*(${C2neg}+${C2pos})
variable C24 equal 0.5*(-0.20530160490845+${C2pos})
variable C24 equal 0.5*(-0.20530160490845+20.3264184260984)
variable C3${dir} equal 0.5*(${C3neg}+${C3pos})
variable C34 equal 0.5*(${C3neg}+${C3pos})
variable C34 equal 0.5*(-27.2599770082632+${C3pos})
variable C34 equal 0.5*(-27.2599770082632+32.1314252582404)
variable C4${dir} equal 0.5*(${C4neg}+${C4pos})
variable C44 equal 0.5*(${C4neg}+${C4pos})
variable C44 equal 0.5*(47.4501342590573+${C4pos})
variable C44 equal 0.5*(47.4501342590573+68.5959508580283)
variable C5${dir} equal 0.5*(${C5neg}+${C5pos})
variable C54 equal 0.5*(${C5neg}+${C5pos})
variable C54 equal 0.5*(-12.7581301752993+${C5pos})
variable C54 equal 0.5*(-12.7581301752993+20.253199533948)
variable C6${dir} equal 0.5*(${C6neg}+${C6pos})
variable C64 equal 0.5*(${C6neg}+${C6pos})
variable C64 equal 0.5*(22.2746421560065+${C6pos})
variable C64 equal 0.5*(22.2746421560065+-19.7362608796738)

# Delete dir to make sure it is not reused

variable dir delete

# uxz Perturbation

variable dir equal 5
include ./input/displace_333-HD-100C-20-VASP.mod
if "${dir} == 1" then    "variable len0 equal ${lx0}"
if "${dir} == 2" then    "variable len0 equal ${ly0}"
if "${dir} == 3" then    "variable len0 equal ${lz0}"
if "${dir} == 4" then    "variable len0 equal ${lz0}"
if "${dir} == 5" then    "variable len0 equal ${lz0}"
variable len0 equal ${lz0}
variable len0 equal 17.093480178614
if "${dir} == 6" then    "variable len0 equal ${ly0}"

# Reset box and simulation parameters

clear
OMP_NUM_THREADS environment is not set. Defaulting to 1 thread.
  using 1 OpenMP thread(s) per MPI task
box tilt large

The 'box' command has been removed and will be ignored

read_restart restart_333-HD-100C-20-VASP.equil
Reading restart file ...
  restart file = 10 Sep 2025, LAMMPS = 10 Sep 2025
  restoring atom style full from restart
  triclinic box = (-0.10145586 -0.095204063 -0.092228589) to (15.610097 13.51759 17.001252) with tilt (-8.3709633 0.62297154 -0.65614249)
WARNING: Triclinic box skew is large. LAMMPS will run inefficiently. (src/domain.cpp:221)
  1 by 1 by 1 MPI processor grid
  restoring pair style lj/cut from restart
  restoring bond style harmonic from restart
  restoring angle style hybrid from restart
  restoring dihedral style harmonic from restart
  366 atoms
  408 bonds
  792 angles
  1080 dihedrals
Finding 1-2 1-3 1-4 neighbors ...
  special bond factors lj:    0        0        1       
  special bond factors coul:  0        0        1       
     4 = max # of 1-2 neighbors
    10 = max # of 1-3 neighbors
    14 = max # of special neighbors
  special bonds CPU = 0.000 seconds
  read_restart CPU = 0.001 seconds
include ./input/angles_333-HD-100C-20-VASP.mod
angle_style hybrid fourier cosine/periodic
angle_coeff 1 fourier 157.882480        0.343737        0.374972        0.281246
angle_coeff 2 fourier 221.735285        0.343737        0.374972        0.281246
angle_coeff 3 fourier 114.246973        0.343737        0.374972        0.281246
angle_coeff 4 fourier 90.420412        0.343737        0.374972        0.281246
angle_coeff 5 fourier 75.498766        0.343737        0.374972        0.281246
angle_coeff 6 cosine/periodic 88.853997              -1               3

# Negative deformation

variable delta equal -${up}*${len0}
variable delta equal -0.02*${len0}
variable delta equal -0.02*17.093480178614
variable deltaxy equal -${up}*xy
variable deltaxy equal -0.02*xy
variable deltaxz equal -${up}*xz
variable deltaxz equal -0.02*xz
variable deltayz equal -${up}*yz
variable deltayz equal -0.02*yz
if "${dir} == 1" then    "change_box all x delta 0 ${delta} xy delta ${deltaxy} xz delta ${deltaxz} remap units box"
if "${dir} == 2" then    "change_box all y delta 0 ${delta} yz delta ${deltayz} remap units box"
if "${dir} == 3" then    "change_box all z delta 0 ${delta} remap units box"
if "${dir} == 4" then    "change_box all yz delta ${delta} remap units box"
if "${dir} == 5" then    "change_box all xz delta ${delta} remap units box"
change_box all xz delta ${delta} remap units box
change_box all xz delta -0.34186960357228 remap units box
Changing box ...
WARNING: Triclinic box skew is large. LAMMPS will run inefficiently. (src/domain.cpp:221)
  triclinic box = (-0.10145586 -0.095204063 -0.092228589) to (15.610097 13.51759 17.001252) with tilt (-8.3709633 0.28110193 -0.65614249)
if "${dir} == 6" then    "change_box all xy delta ${delta} remap units box"

# Relax atoms positions

minimize ${etol} ${ftol} ${maxiter} ${maxeval}
minimize 0 ${ftol} ${maxiter} ${maxeval}
minimize 0 1e-10 ${maxiter} ${maxeval}
minimize 0 1e-10 100000 ${maxeval}
minimize 0 1e-10 100000 100000
Generated 6 of 6 mixed pair_coeff terms from arithmetic mixing rule
Neighbor list info ...
  update: every = 1 steps, delay = 0 steps, check = yes
  max neighbors/atom: 2000, page size: 100000
  master list distance cutoff = 7
  ghost atom cutoff = 7
  binsize = 3.5, bins = 7 5 5
  1 neighbor lists, perpetual/occasional/extra = 1 0 0
  (1) pair lj/cut, perpetual
      attributes: half, newton on
      pair build: half/bin/newton/tri
      stencil: half/bin/3d/tri
      bin: standard
WARNING: Inconsistent image flags
For more information see https://docs.lammps.org/err0027 (src/domain.cpp:1052)
Per MPI rank memory allocation (min/avg/max) = 19.54 | 19.54 | 19.54 Mbytes
   Step          Temp          E_pair         E_mol          TotEng         Press     
    250125   303.46893     -303.8442       1400.1235      1426.4522      3660.8302    
    250149   303.46893     -360.29211      1125.9661      1095.8469      384.13577    
Loop time of 0.0221862 on 1 procs for 24 steps with 366 atoms

100.0% CPU use with 1 MPI tasks x 1 OpenMP threads

Minimization stats:
  Stopping criterion = linesearch alpha is zero
  Energy initial, next-to-last, final = 
      1096.27931727405   765.673971857492   765.673971857492
  Force two-norm initial, final = 690.96491 22.332269
  Force max component initial, final = 79.070073 2.7622387
  Final line search alpha, max atom move = 1.3970545e-11 3.8589979e-11
  Iterations, force evaluations = 24 105

MPI task timing breakdown:
Section |  min time  |  avg time  |  max time  |%varavg| %total
---------------------------------------------------------------
Pair    | 0.016911   | 0.016911   | 0.016911   |   0.0 | 76.22
Bond    | 0.0044312  | 0.0044312  | 0.0044312  |   0.0 | 19.97
Neigh   | 0          | 0          | 0          |   0.0 |  0.00
Comm    | 0.00050543 | 0.00050543 | 0.00050543 |   0.0 |  2.28
Output  | 0          | 0          | 0          |   0.0 |  0.00
Modify  | 0          | 0          | 0          |   0.0 |  0.00
Other   |            | 0.0003382  |            |       |  1.52

Nlocal:            366 ave         366 max         366 min
Histogram: 1 0 0 0 0 0 0 0 0 0
Nghost:           2448 ave        2448 max        2448 min
Histogram: 1 0 0 0 0 0 0 0 0 0
Neighs:          25019 ave       25019 max       25019 min
Histogram: 1 0 0 0 0 0 0 0 0 0

Total # of neighbors = 25019
Ave neighs/atom = 68.357923
Ave special neighs/atom = 6.557377
Neighbor list builds = 0
Dangerous builds = 0

# Obtain new stress tensor

variable tmp equal pxx
variable pxx1 equal ${tmp}
variable pxx1 equal 4257.02785065538
variable tmp equal pyy
variable pyy1 equal ${tmp}
variable pyy1 equal 2872.12039625557
variable tmp equal pzz
variable pzz1 equal ${tmp}
variable pzz1 equal -5976.74093034542
variable tmp equal pxy
variable pxy1 equal ${tmp}
variable pxy1 equal 5899.49688050297
variable tmp equal pxz
variable pxz1 equal ${tmp}
variable pxz1 equal 3196.84079285628
variable tmp equal pyz
variable pyz1 equal ${tmp}
variable pyz1 equal -5925.06770631074

# Compute elastic constant from pressure tensor

variable C1neg equal ${d1}
variable C1neg equal -1.51496241807945
variable C2neg equal ${d2}
variable C2neg equal -14.6562946355639
variable C3neg equal ${d3}
variable C3neg equal -34.6494912955156
variable C4neg equal ${d4}
variable C4neg equal -5.1769904817905
variable C5neg equal ${d5}
variable C5neg equal 41.5840568769934
variable C6neg equal ${d6}
variable C6neg equal 23.6364211162792

# Reset box and simulation parameters

clear
OMP_NUM_THREADS environment is not set. Defaulting to 1 thread.
  using 1 OpenMP thread(s) per MPI task
box tilt large

The 'box' command has been removed and will be ignored

read_restart restart_333-HD-100C-20-VASP.equil
Reading restart file ...
  restart file = 10 Sep 2025, LAMMPS = 10 Sep 2025
  restoring atom style full from restart
  triclinic box = (-0.10145586 -0.095204063 -0.092228589) to (15.610097 13.51759 17.001252) with tilt (-8.3709633 0.62297154 -0.65614249)
WARNING: Triclinic box skew is large. LAMMPS will run inefficiently. (src/domain.cpp:221)
  1 by 1 by 1 MPI processor grid
  restoring pair style lj/cut from restart
  restoring bond style harmonic from restart
  restoring angle style hybrid from restart
  restoring dihedral style harmonic from restart
  366 atoms
  408 bonds
  792 angles
  1080 dihedrals
Finding 1-2 1-3 1-4 neighbors ...
  special bond factors lj:    0        0        1       
  special bond factors coul:  0        0        1       
     4 = max # of 1-2 neighbors
    10 = max # of 1-3 neighbors
    14 = max # of special neighbors
  special bonds CPU = 0.000 seconds
  read_restart CPU = 0.001 seconds
include ./input/angles_333-HD-100C-20-VASP.mod
angle_style hybrid fourier cosine/periodic
angle_coeff 1 fourier 157.882480        0.343737        0.374972        0.281246
angle_coeff 2 fourier 221.735285        0.343737        0.374972        0.281246
angle_coeff 3 fourier 114.246973        0.343737        0.374972        0.281246
angle_coeff 4 fourier 90.420412        0.343737        0.374972        0.281246
angle_coeff 5 fourier 75.498766        0.343737        0.374972        0.281246
angle_coeff 6 cosine/periodic 88.853997              -1               3

# Positive deformation

variable delta equal ${up}*${len0}
variable delta equal 0.02*${len0}
variable delta equal 0.02*17.093480178614
variable deltaxy equal ${up}*xy
variable deltaxy equal 0.02*xy
variable deltaxz equal ${up}*xz
variable deltaxz equal 0.02*xz
variable deltayz equal ${up}*yz
variable deltayz equal 0.02*yz
if "${dir} == 1" then    "change_box all x delta 0 ${delta} xy delta ${deltaxy} xz delta ${deltaxz} remap units box"
if "${dir} == 2" then    "change_box all y delta 0 ${delta} yz delta ${deltayz} remap units box"
if "${dir} == 3" then    "change_box all z delta 0 ${delta} remap units box"
if "${dir} == 4" then    "change_box all yz delta ${delta} remap units box"
if "${dir} == 5" then    "change_box all xz delta ${delta} remap units box"
change_box all xz delta ${delta} remap units box
change_box all xz delta 0.34186960357228 remap units box
Changing box ...
WARNING: Triclinic box skew is large. LAMMPS will run inefficiently. (src/domain.cpp:221)
  triclinic box = (-0.10145586 -0.095204063 -0.092228589) to (15.610097 13.51759 17.001252) with tilt (-8.3709633 0.96484114 -0.65614249)
if "${dir} == 6" then    "change_box all xy delta ${delta} remap units box"

# Relax atoms positions

minimize ${etol} ${ftol} ${maxiter} ${maxeval}
minimize 0 ${ftol} ${maxiter} ${maxeval}
minimize 0 1e-10 ${maxiter} ${maxeval}
minimize 0 1e-10 100000 ${maxeval}
minimize 0 1e-10 100000 100000
Generated 6 of 6 mixed pair_coeff terms from arithmetic mixing rule
Neighbor list info ...
  update: every = 1 steps, delay = 0 steps, check = yes
  max neighbors/atom: 2000, page size: 100000
  master list distance cutoff = 7
  ghost atom cutoff = 7
  binsize = 3.5, bins = 8 5 5
  1 neighbor lists, perpetual/occasional/extra = 1 0 0
  (1) pair lj/cut, perpetual
      attributes: half, newton on
      pair build: half/bin/newton/tri
      stencil: half/bin/3d/tri
      bin: standard
WARNING: Inconsistent image flags
For more information see https://docs.lammps.org/err0027 (src/domain.cpp:1052)
Per MPI rank memory allocation (min/avg/max) = 19.54 | 19.54 | 19.54 Mbytes
   Step          Temp          E_pair         E_mol          TotEng         Press     
    250125   303.46893     -307.02312      1412.394       1435.5437      3515.5825    
    250153   303.46893     -362.98274      1143.3603      1110.5504      878.15191    
Loop time of 0.0231813 on 1 procs for 28 steps with 366 atoms

100.0% CPU use with 1 MPI tasks x 1 OpenMP threads

Minimization stats:
  Stopping criterion = linesearch alpha is zero
  Energy initial, next-to-last, final = 
      1105.37084588872   780.377539912167   780.377539912167
  Force two-norm initial, final = 672.32965 18.983977
  Force max component initial, final = 79.2275 2.5220032
  Final line search alpha, max atom move = 2.9736217e-11 7.4994835e-11
  Iterations, force evaluations = 28 111

MPI task timing breakdown:
Section |  min time  |  avg time  |  max time  |%varavg| %total
---------------------------------------------------------------
Pair    | 0.017589   | 0.017589   | 0.017589   |   0.0 | 75.88
Bond    | 0.0046914  | 0.0046914  | 0.0046914  |   0.0 | 20.24
Neigh   | 0          | 0          | 0          |   0.0 |  0.00
Comm    | 0.00053247 | 0.00053247 | 0.00053247 |   0.0 |  2.30
Output  | 0          | 0          | 0          |   0.0 |  0.00
Modify  | 0          | 0          | 0          |   0.0 |  0.00
Other   |            | 0.0003686  |            |       |  1.59

Nlocal:            366 ave         366 max         366 min
Histogram: 1 0 0 0 0 0 0 0 0 0
Nghost:           2448 ave        2448 max        2448 min
Histogram: 1 0 0 0 0 0 0 0 0 0
Neighs:          25041 ave       25041 max       25041 min
Histogram: 1 0 0 0 0 0 0 0 0 0

Total # of neighbors = 25041
Ave neighs/atom = 68.418033
Ave special neighs/atom = 6.557377
Neighbor list builds = 0
Dangerous builds = 0

# Obtain new stress tensor

variable tmp equal pe
variable e1 equal ${tmp}
variable e1 equal 780.377539912167
variable tmp equal press
variable p1 equal ${tmp}
variable p1 equal 878.151912914371
variable tmp equal pxx
variable pxx1 equal ${tmp}
variable pxx1 equal 2348.54770689015
variable tmp equal pyy
variable pyy1 equal ${tmp}
variable pyy1 equal 4698.63656598897
variable tmp equal pzz
variable pzz1 equal ${tmp}
variable pzz1 equal -4412.728534136
variable tmp equal pxy
variable pxy1 equal ${tmp}
variable pxy1 equal 5249.14824112036
variable tmp equal pxz
variable pxz1 equal ${tmp}
variable pxz1 equal -19840.1271329534
variable tmp equal pyz
variable pyz1 equal ${tmp}
variable pyz1 equal -6886.63787333056

# Compute elastic constant from pressure tensor

variable C1pos equal ${d1}
variable C1pos equal 11.0573631369056
variable C2pos equal ${d2}
variable C2pos equal 5.52371378689695
variable C3pos equal ${d3}
variable C3pos equal 26.8294293144685
variable C4pos equal ${d4}
variable C4pos equal 9.9848413168896
variable C5pos equal ${d5}
variable C5pos equal 73.600782752055
variable C6pos equal ${d6}
variable C6pos equal -20.3846779193661

# Combine positive and negative

variable C1${dir} equal 0.5*(${C1neg}+${C1pos})
variable C15 equal 0.5*(${C1neg}+${C1pos})
variable C15 equal 0.5*(-1.51496241807945+${C1pos})
variable C15 equal 0.5*(-1.51496241807945+11.0573631369056)
variable C2${dir} equal 0.5*(${C2neg}+${C2pos})
variable C25 equal 0.5*(${C2neg}+${C2pos})
variable C25 equal 0.5*(-14.6562946355639+${C2pos})
variable C25 equal 0.5*(-14.6562946355639+5.52371378689695)
variable C3${dir} equal 0.5*(${C3neg}+${C3pos})
variable C35 equal 0.5*(${C3neg}+${C3pos})
variable C35 equal 0.5*(-34.6494912955156+${C3pos})
variable C35 equal 0.5*(-34.6494912955156+26.8294293144685)
variable C4${dir} equal 0.5*(${C4neg}+${C4pos})
variable C45 equal 0.5*(${C4neg}+${C4pos})
variable C45 equal 0.5*(-5.1769904817905+${C4pos})
variable C45 equal 0.5*(-5.1769904817905+9.9848413168896)
variable C5${dir} equal 0.5*(${C5neg}+${C5pos})
variable C55 equal 0.5*(${C5neg}+${C5pos})
variable C55 equal 0.5*(41.5840568769934+${C5pos})
variable C55 equal 0.5*(41.5840568769934+73.600782752055)
variable C6${dir} equal 0.5*(${C6neg}+${C6pos})
variable C65 equal 0.5*(${C6neg}+${C6pos})
variable C65 equal 0.5*(23.6364211162792+${C6pos})
variable C65 equal 0.5*(23.6364211162792+-20.3846779193661)

# Delete dir to make sure it is not reused

variable dir delete

# uxy Perturbation

variable dir equal 6
include ./input/displace_333-HD-100C-20-VASP.mod
if "${dir} == 1" then    "variable len0 equal ${lx0}"
if "${dir} == 2" then    "variable len0 equal ${ly0}"
if "${dir} == 3" then    "variable len0 equal ${lz0}"
if "${dir} == 4" then    "variable len0 equal ${lz0}"
if "${dir} == 5" then    "variable len0 equal ${lz0}"
if "${dir} == 6" then    "variable len0 equal ${ly0}"
variable len0 equal ${ly0}
variable len0 equal 13.6127941268845

# Reset box and simulation parameters

clear
OMP_NUM_THREADS environment is not set. Defaulting to 1 thread.
  using 1 OpenMP thread(s) per MPI task
box tilt large

The 'box' command has been removed and will be ignored

read_restart restart_333-HD-100C-20-VASP.equil
Reading restart file ...
  restart file = 10 Sep 2025, LAMMPS = 10 Sep 2025
  restoring atom style full from restart
  triclinic box = (-0.10145586 -0.095204063 -0.092228589) to (15.610097 13.51759 17.001252) with tilt (-8.3709633 0.62297154 -0.65614249)
WARNING: Triclinic box skew is large. LAMMPS will run inefficiently. (src/domain.cpp:221)
  1 by 1 by 1 MPI processor grid
  restoring pair style lj/cut from restart
  restoring bond style harmonic from restart
  restoring angle style hybrid from restart
  restoring dihedral style harmonic from restart
  366 atoms
  408 bonds
  792 angles
  1080 dihedrals
Finding 1-2 1-3 1-4 neighbors ...
  special bond factors lj:    0        0        1       
  special bond factors coul:  0        0        1       
     4 = max # of 1-2 neighbors
    10 = max # of 1-3 neighbors
    14 = max # of special neighbors
  special bonds CPU = 0.000 seconds
  read_restart CPU = 0.001 seconds
include ./input/angles_333-HD-100C-20-VASP.mod
angle_style hybrid fourier cosine/periodic
angle_coeff 1 fourier 157.882480        0.343737        0.374972        0.281246
angle_coeff 2 fourier 221.735285        0.343737        0.374972        0.281246
angle_coeff 3 fourier 114.246973        0.343737        0.374972        0.281246
angle_coeff 4 fourier 90.420412        0.343737        0.374972        0.281246
angle_coeff 5 fourier 75.498766        0.343737        0.374972        0.281246
angle_coeff 6 cosine/periodic 88.853997              -1               3

# Negative deformation

variable delta equal -${up}*${len0}
variable delta equal -0.02*${len0}
variable delta equal -0.02*13.6127941268845
variable deltaxy equal -${up}*xy
variable deltaxy equal -0.02*xy
variable deltaxz equal -${up}*xz
variable deltaxz equal -0.02*xz
variable deltayz equal -${up}*yz
variable deltayz equal -0.02*yz
if "${dir} == 1" then    "change_box all x delta 0 ${delta} xy delta ${deltaxy} xz delta ${deltaxz} remap units box"
if "${dir} == 2" then    "change_box all y delta 0 ${delta} yz delta ${deltayz} remap units box"
if "${dir} == 3" then    "change_box all z delta 0 ${delta} remap units box"
if "${dir} == 4" then    "change_box all yz delta ${delta} remap units box"
if "${dir} == 5" then    "change_box all xz delta ${delta} remap units box"
if "${dir} == 6" then    "change_box all xy delta ${delta} remap units box"
change_box all xy delta ${delta} remap units box
change_box all xy delta -0.27225588253769 remap units box
Changing box ...
WARNING: Triclinic box skew is large. LAMMPS will run inefficiently. (src/domain.cpp:221)
  triclinic box = (-0.10145586 -0.095204063 -0.092228589) to (15.610097 13.51759 17.001252) with tilt (-8.6432192 0.62297154 -0.65614249)

# Relax atoms positions

minimize ${etol} ${ftol} ${maxiter} ${maxeval}
minimize 0 ${ftol} ${maxiter} ${maxeval}
minimize 0 1e-10 ${maxiter} ${maxeval}
minimize 0 1e-10 100000 ${maxeval}
minimize 0 1e-10 100000 100000
Generated 6 of 6 mixed pair_coeff terms from arithmetic mixing rule
Neighbor list info ...
  update: every = 1 steps, delay = 0 steps, check = yes
  max neighbors/atom: 2000, page size: 100000
  master list distance cutoff = 7
  ghost atom cutoff = 7
  binsize = 3.5, bins = 8 5 5
  1 neighbor lists, perpetual/occasional/extra = 1 0 0
  (1) pair lj/cut, perpetual
      attributes: half, newton on
      pair build: half/bin/newton/tri
      stencil: half/bin/3d/tri
      bin: standard
WARNING: Inconsistent image flags
For more information see https://docs.lammps.org/err0027 (src/domain.cpp:1052)
Per MPI rank memory allocation (min/avg/max) = 19.54 | 19.54 | 19.54 Mbytes
   Step          Temp          E_pair         E_mol          TotEng         Press     
    250125   303.46893     -303.03045      1403.275       1430.4175      3613.3202    
    250157   303.46893     -354.89555      1132.5143      1107.7917      1488.8638    
Loop time of 0.0243792 on 1 procs for 32 steps with 366 atoms

100.0% CPU use with 1 MPI tasks x 1 OpenMP threads

Minimization stats:
  Stopping criterion = linesearch alpha is zero
  Energy initial, next-to-last, final = 
      1100.24458850787   777.618772430811   777.618772430811
  Force two-norm initial, final = 679.74118 13.261865
  Force max component initial, final = 84.378865 1.6355272
  Final line search alpha, max atom move = 7.0296291e-11 1.149715e-10
  Iterations, force evaluations = 32 117

MPI task timing breakdown:
Section |  min time  |  avg time  |  max time  |%varavg| %total
---------------------------------------------------------------
Pair    | 0.01851    | 0.01851    | 0.01851    |   0.0 | 75.93
Bond    | 0.0049364  | 0.0049364  | 0.0049364  |   0.0 | 20.25
Neigh   | 0          | 0          | 0          |   0.0 |  0.00
Comm    | 0.00054969 | 0.00054969 | 0.00054969 |   0.0 |  2.25
Output  | 0          | 0          | 0          |   0.0 |  0.00
Modify  | 0          | 0          | 0          |   0.0 |  0.00
Other   |            | 0.0003828  |            |       |  1.57

Nlocal:            366 ave         366 max         366 min
Histogram: 1 0 0 0 0 0 0 0 0 0
Nghost:           2463 ave        2463 max        2463 min
Histogram: 1 0 0 0 0 0 0 0 0 0
Neighs:          25023 ave       25023 max       25023 min
Histogram: 1 0 0 0 0 0 0 0 0 0

Total # of neighbors = 25023
Ave neighs/atom = 68.368852
Ave special neighs/atom = 6.557377
Neighbor list builds = 0
Dangerous builds = 0

# Obtain new stress tensor

variable tmp equal pxx
variable pxx1 equal ${tmp}
variable pxx1 equal 4072.13602810741
variable tmp equal pyy
variable pyy1 equal ${tmp}
variable pyy1 equal 5714.04723297753
variable tmp equal pzz
variable pzz1 equal ${tmp}
variable pzz1 equal -5319.59179402224
variable tmp equal pxy
variable pxy1 equal ${tmp}
variable pxy1 equal 14894.8775066462
variable tmp equal pxz
variable pxz1 equal ${tmp}
variable pxz1 equal -7820.41064312346
variable tmp equal pyz
variable pyz1 equal ${tmp}
variable pyz1 equal -6117.95916336575

# Compute elastic constant from pressure tensor

variable C1neg equal ${d1}
variable C1neg equal -2.4394215308193
variable C2neg equal ${d2}
variable C2neg equal -0.446660451954149
variable C3neg equal ${d3}
variable C3neg equal -31.3637456138997
variable C4neg equal ${d4}
variable C4neg equal -6.14144776706555
variable C5neg equal ${d5}
variable C5neg equal -13.5022003029053
variable C6neg equal ${d6}
variable C6neg equal 68.6133242469953

# Reset box and simulation parameters

clear
OMP_NUM_THREADS environment is not set. Defaulting to 1 thread.
  using 1 OpenMP thread(s) per MPI task
box tilt large

The 'box' command has been removed and will be ignored

read_restart restart_333-HD-100C-20-VASP.equil
Reading restart file ...
  restart file = 10 Sep 2025, LAMMPS = 10 Sep 2025
  restoring atom style full from restart
  triclinic box = (-0.10145586 -0.095204063 -0.092228589) to (15.610097 13.51759 17.001252) with tilt (-8.3709633 0.62297154 -0.65614249)
WARNING: Triclinic box skew is large. LAMMPS will run inefficiently. (src/domain.cpp:221)
  1 by 1 by 1 MPI processor grid
  restoring pair style lj/cut from restart
  restoring bond style harmonic from restart
  restoring angle style hybrid from restart
  restoring dihedral style harmonic from restart
  366 atoms
  408 bonds
  792 angles
  1080 dihedrals
Finding 1-2 1-3 1-4 neighbors ...
  special bond factors lj:    0        0        1       
  special bond factors coul:  0        0        1       
     4 = max # of 1-2 neighbors
    10 = max # of 1-3 neighbors
    14 = max # of special neighbors
  special bonds CPU = 0.000 seconds
  read_restart CPU = 0.001 seconds
include ./input/angles_333-HD-100C-20-VASP.mod
angle_style hybrid fourier cosine/periodic
angle_coeff 1 fourier 157.882480        0.343737        0.374972        0.281246
angle_coeff 2 fourier 221.735285        0.343737        0.374972        0.281246
angle_coeff 3 fourier 114.246973        0.343737        0.374972        0.281246
angle_coeff 4 fourier 90.420412        0.343737        0.374972        0.281246
angle_coeff 5 fourier 75.498766        0.343737        0.374972        0.281246
angle_coeff 6 cosine/periodic 88.853997              -1               3

# Positive deformation

variable delta equal ${up}*${len0}
variable delta equal 0.02*${len0}
variable delta equal 0.02*13.6127941268845
variable deltaxy equal ${up}*xy
variable deltaxy equal 0.02*xy
variable deltaxz equal ${up}*xz
variable deltaxz equal 0.02*xz
variable deltayz equal ${up}*yz
variable deltayz equal 0.02*yz
if "${dir} == 1" then    "change_box all x delta 0 ${delta} xy delta ${deltaxy} xz delta ${deltaxz} remap units box"
if "${dir} == 2" then    "change_box all y delta 0 ${delta} yz delta ${deltayz} remap units box"
if "${dir} == 3" then    "change_box all z delta 0 ${delta} remap units box"
if "${dir} == 4" then    "change_box all yz delta ${delta} remap units box"
if "${dir} == 5" then    "change_box all xz delta ${delta} remap units box"
if "${dir} == 6" then    "change_box all xy delta ${delta} remap units box"
change_box all xy delta ${delta} remap units box
change_box all xy delta 0.27225588253769 remap units box
Changing box ...
WARNING: Triclinic box skew is large. LAMMPS will run inefficiently. (src/domain.cpp:221)
  triclinic box = (-0.10145586 -0.095204063 -0.092228589) to (15.610097 13.51759 17.001252) with tilt (-8.0987075 0.62297154 -0.65614249)

# Relax atoms positions

minimize ${etol} ${ftol} ${maxiter} ${maxeval}
minimize 0 ${ftol} ${maxiter} ${maxeval}
minimize 0 1e-10 ${maxiter} ${maxeval}
minimize 0 1e-10 100000 ${maxeval}
minimize 0 1e-10 100000 100000
Generated 6 of 6 mixed pair_coeff terms from arithmetic mixing rule
Neighbor list info ...
  update: every = 1 steps, delay = 0 steps, check = yes
  max neighbors/atom: 2000, page size: 100000
  master list distance cutoff = 7
  ghost atom cutoff = 7
  binsize = 3.5, bins = 7 5 5
  1 neighbor lists, perpetual/occasional/extra = 1 0 0
  (1) pair lj/cut, perpetual
      attributes: half, newton on
      pair build: half/bin/newton/tri
      stencil: half/bin/3d/tri
      bin: standard
WARNING: Inconsistent image flags
For more information see https://docs.lammps.org/err0027 (src/domain.cpp:1052)
Per MPI rank memory allocation (min/avg/max) = 19.54 | 19.54 | 19.54 Mbytes
   Step          Temp          E_pair         E_mol          TotEng         Press     
    250125   303.46893     -308.45652      1405.5873      1427.3036      3576.2185    
    250163   303.46893     -369.15565      1133.9628      1094.9801     -543.45315    
Loop time of 0.0272702 on 1 procs for 38 steps with 366 atoms

100.0% CPU use with 1 MPI tasks x 1 OpenMP threads

Minimization stats:
  Stopping criterion = linesearch alpha is zero
  Energy initial, next-to-last, final = 
      1097.13073584447   764.807182848735   764.807182848735
  Force two-norm initial, final = 681.9188 9.4266482
  Force max component initial, final = 76.891609 1.1167014
  Final line search alpha, max atom move = 7.8944286e-11 8.8157194e-11
  Iterations, force evaluations = 38 131

MPI task timing breakdown:
Section |  min time  |  avg time  |  max time  |%varavg| %total
---------------------------------------------------------------
Pair    | 0.020731   | 0.020731   | 0.020731   |   0.0 | 76.02
Bond    | 0.005486   | 0.005486   | 0.005486   |   0.0 | 20.12
Neigh   | 0          | 0          | 0          |   0.0 |  0.00
Comm    | 0.00061485 | 0.00061485 | 0.00061485 |   0.0 |  2.25
Output  | 0          | 0          | 0          |   0.0 |  0.00
Modify  | 0          | 0          | 0          |   0.0 |  0.00
Other   |            | 0.0004386  |            |       |  1.61

Nlocal:            366 ave         366 max         366 min
Histogram: 1 0 0 0 0 0 0 0 0 0
Nghost:           2430 ave        2430 max        2430 min
Histogram: 1 0 0 0 0 0 0 0 0 0
Neighs:          25032 ave       25032 max       25032 min
Histogram: 1 0 0 0 0 0 0 0 0 0

Total # of neighbors = 25032
Ave neighs/atom = 68.393443
Ave special neighs/atom = 6.557377
Neighbor list builds = 0
Dangerous builds = 0

# Obtain new stress tensor

variable tmp equal pe
variable e1 equal ${tmp}
variable e1 equal 764.807182848735
variable tmp equal press
variable p1 equal ${tmp}
variable p1 equal -543.453150039612
variable tmp equal pxx
variable pxx1 equal ${tmp}
variable pxx1 equal 1641.0613788972
variable tmp equal pyy
variable pyy1 equal ${tmp}
variable pyy1 equal 2775.09564755966
variable tmp equal pzz
variable pzz1 equal ${tmp}
variable pzz1 equal -6046.5164765757
variable tmp equal pxy
variable pxy1 equal ${tmp}
variable pxy1 equal -4266.31984815884
variable tmp equal pxz
variable pxz1 equal ${tmp}
variable pxz1 equal -8835.38116616001
variable tmp equal pyz
variable pyz1 equal ${tmp}
variable pyz1 equal -6461.58986764554

# Compute elastic constant from pressure tensor

variable C1pos equal ${d1}
variable C1pos equal 14.5947947768704
variable C2pos equal ${d2}
variable C2pos equal 15.1414183790435
variable C3pos equal ${d3}
variable C3pos equal 34.998369026667
variable C4pos equal ${d4}
variable C4pos equal 7.8596012884645
variable C5pos equal ${d5}
variable C5pos equal 18.5770529180881
variable C6pos equal ${d6}
variable C6pos equal 27.1926625270299

# Combine positive and negative

variable C1${dir} equal 0.5*(${C1neg}+${C1pos})
variable C16 equal 0.5*(${C1neg}+${C1pos})
variable C16 equal 0.5*(-2.4394215308193+${C1pos})
variable C16 equal 0.5*(-2.4394215308193+14.5947947768704)
variable C2${dir} equal 0.5*(${C2neg}+${C2pos})
variable C26 equal 0.5*(${C2neg}+${C2pos})
variable C26 equal 0.5*(-0.446660451954149+${C2pos})
variable C26 equal 0.5*(-0.446660451954149+15.1414183790435)
variable C3${dir} equal 0.5*(${C3neg}+${C3pos})
variable C36 equal 0.5*(${C3neg}+${C3pos})
variable C36 equal 0.5*(-31.3637456138997+${C3pos})
variable C36 equal 0.5*(-31.3637456138997+34.998369026667)
variable C4${dir} equal 0.5*(${C4neg}+${C4pos})
variable C46 equal 0.5*(${C4neg}+${C4pos})
variable C46 equal 0.5*(-6.14144776706555+${C4pos})
variable C46 equal 0.5*(-6.14144776706555+7.8596012884645)
variable C5${dir} equal 0.5*(${C5neg}+${C5pos})
variable C56 equal 0.5*(${C5neg}+${C5pos})
variable C56 equal 0.5*(-13.5022003029053+${C5pos})
variable C56 equal 0.5*(-13.5022003029053+18.5770529180881)
variable C6${dir} equal 0.5*(${C6neg}+${C6pos})
variable C66 equal 0.5*(${C6neg}+${C6pos})
variable C66 equal 0.5*(68.6133242469953+${C6pos})
variable C66 equal 0.5*(68.6133242469953+27.1926625270299)

# Delete dir to make sure it is not reused

variable dir delete

# Output final values

variable C11all equal ${C11}
variable C11all equal 140.320946994257
variable C22all equal ${C22}
variable C22all equal 145.358172300893
variable C33all equal ${C33}
variable C33all equal 128.585804736058

variable C12all equal 0.5*(${C12}+${C21})
variable C12all equal 0.5*(52.5868098900599+${C21})
variable C12all equal 0.5*(52.5868098900599+54.3562903677989)
variable C13all equal 0.5*(${C13}+${C31})
variable C13all equal 0.5*(53.8813160773383+${C31})
variable C13all equal 0.5*(53.8813160773383+52.4617239475967)
variable C23all equal 0.5*(${C23}+${C32})
variable C23all equal 0.5*(54.8905522972127+${C32})
variable C23all equal 0.5*(54.8905522972127+53.9167015448068)

variable C44all equal ${C44}
variable C44all equal 58.0230425585428
variable C55all equal ${C55}
variable C55all equal 57.5924198145242
variable C66all equal ${C66}
variable C66all equal 47.9029933870126

variable C14all equal 0.5*(${C14}+${C41})
variable C14all equal 0.5*(-1.96315139530295+${C41})
variable C14all equal 0.5*(-1.96315139530295+-0.6857937634963)
variable C15all equal 0.5*(${C15}+${C51})
variable C15all equal 0.5*(4.77120035941307+${C51})
variable C15all equal 0.5*(4.77120035941307+2.7161450893508)
variable C16all equal 0.5*(${C16}+${C61})
variable C16all equal 0.5*(6.07768662302555+${C61})
variable C16all equal 0.5*(6.07768662302555+6.29484526975405)

variable C24all equal 0.5*(${C24}+${C42})
variable C24all equal 0.5*(10.060558410595+${C42})
variable C24all equal 0.5*(10.060558410595+8.22515044326178)
variable C25all equal 0.5*(${C25}+${C52})
variable C25all equal 0.5*(-4.56629042433347+${C52})
variable C25all equal 0.5*(-4.56629042433347+-6.2610752353721)
variable C26all equal 0.5*(${C26}+${C62})
variable C26all equal 0.5*(7.34737896354468+${C62})
variable C26all equal 0.5*(7.34737896354468+7.4385060613337)

variable C34all equal 0.5*(${C34}+${C43})
variable C34all equal 0.5*(2.4357241249886+${C43})
variable C34all equal 0.5*(2.4357241249886+5.29796826331462)
variable C35all equal 0.5*(${C35}+${C53})
variable C35all equal 0.5*(-3.91003099052355+${C53})
variable C35all equal 0.5*(-3.91003099052355+-4.0764518790049)
variable C36all equal 0.5*(${C36}+${C63})
variable C36all equal 0.5*(1.81731170638365+${C63})
variable C36all equal 0.5*(1.81731170638365+2.15099385536555)

variable C45all equal 0.5*(${C45}+${C54})
variable C45all equal 0.5*(2.40392541754955+${C54})
variable C45all equal 0.5*(2.40392541754955+3.74753467932435)
variable C46all equal 0.5*(${C46}+${C64})
variable C46all equal 0.5*(0.859076760699475+${C64})
variable C46all equal 0.5*(0.859076760699475+1.26919063816635)
variable C56all equal 0.5*(${C56}+${C65})
variable C56all equal 0.5*(2.5374263075914+${C65})
variable C56all equal 0.5*(2.5374263075914+1.62587159845655)

# Average moduli for cubic crystals

variable C11cubic equal (${C11all}+${C22all}+${C33all})/3.0
variable C11cubic equal (140.320946994257+${C22all}+${C33all})/3.0
variable C11cubic equal (140.320946994257+145.358172300893+${C33all})/3.0
variable C11cubic equal (140.320946994257+145.358172300893+128.585804736058)/3.0
variable C12cubic equal (${C12all}+${C13all}+${C23all})/3.0
variable C12cubic equal (53.4715501289294+${C13all}+${C23all})/3.0
variable C12cubic equal (53.4715501289294+53.1715200124675+${C23all})/3.0
variable C12cubic equal (53.4715501289294+53.1715200124675+54.4036269210097)/3.0
variable C44cubic equal (${C44all}+${C55all}+${C66all})/3.0
variable C44cubic equal (58.0230425585428+${C55all}+${C66all})/3.0
variable C44cubic equal (58.0230425585428+57.5924198145242+${C66all})/3.0
variable C44cubic equal (58.0230425585428+57.5924198145242+47.9029933870126)/3.0

variable bulkmodulus equal (${C11cubic}+2*${C12cubic})/3.0
variable bulkmodulus equal (138.088308010403+2*${C12cubic})/3.0
variable bulkmodulus equal (138.088308010403+2*53.6822323541355)/3.0
variable shearmodulus1 equal ${C44cubic}
variable shearmodulus1 equal 54.5061519200265
variable shearmodulus2 equal (${C11cubic}-${C12cubic})/2.0
variable shearmodulus2 equal (138.088308010403-${C12cubic})/2.0
variable shearmodulus2 equal (138.088308010403-53.6822323541355)/2.0
variable poissonratio equal 1.0/(1.0+${C11cubic}/${C12cubic})
variable poissonratio equal 1.0/(1.0+138.088308010403/${C12cubic})
variable poissonratio equal 1.0/(1.0+138.088308010403/53.6822323541355)

print "Elastic Constant 1 1 = ${C11all}"
Elastic Constant 1 1 = 140.320946994257
print "Elastic Constant 2 2 = ${C22all}"
Elastic Constant 2 2 = 145.358172300893
print "Elastic Constant 3 3 = ${C33all}"
Elastic Constant 3 3 = 128.585804736058

print "Elastic Constant 1 2 = ${C12all}"
Elastic Constant 1 2 = 53.4715501289294
print "Elastic Constant 1 3 = ${C13all}"
Elastic Constant 1 3 = 53.1715200124675
print "Elastic Constant 2 3 = ${C23all}"
Elastic Constant 2 3 = 54.4036269210097

print "Elastic Constant 4 4 = ${C44all}"
Elastic Constant 4 4 = 58.0230425585428
print "Elastic Constant 5 5 = ${C55all}"
Elastic Constant 5 5 = 57.5924198145242
print "Elastic Constant 6 6 = ${C66all}"
Elastic Constant 6 6 = 47.9029933870126

print "Elastic Constant 1 4 = ${C14all}"
Elastic Constant 1 4 = -1.32447257939963
print "Elastic Constant 1 5 = ${C15all}"
Elastic Constant 1 5 = 3.74367272438193
print "Elastic Constant 1 6 = ${C16all}"
Elastic Constant 1 6 = 6.1862659463898

print "Elastic Constant 2 4 = ${C24all}"
Elastic Constant 2 4 = 9.14285442692839
print "Elastic Constant 2 5 = ${C25all}"
Elastic Constant 2 5 = -5.41368282985279
print "Elastic Constant 2 6 = ${C26all}"
Elastic Constant 2 6 = 7.39294251243919

print "Elastic Constant 3 4 = ${C34all}"
Elastic Constant 3 4 = 3.86684619415161
print "Elastic Constant 3 5 = ${C35all}"
Elastic Constant 3 5 = -3.99324143476422
print "Elastic Constant 3 6 = ${C36all}"
Elastic Constant 3 6 = 1.9841527808746

print "Elastic Constant 4 5 = ${C45all}"
Elastic Constant 4 5 = 3.07573004843695
print "Elastic Constant 4 6 = ${C46all}"
Elastic Constant 4 6 = 1.06413369943291
print "Elastic Constant 5 6 = ${C56all}"
Elastic Constant 5 6 = 2.08164895302397

print "Bulk Modulus = ${bulkmodulus} ${cunits}"
Bulk Modulus = 81.8175909062247 GPa
print "Shear Modulus 1 = ${shearmodulus1} ${cunits}"
Shear Modulus 1 = 54.5061519200265 GPa
print "Shear Modulus 2 = ${shearmodulus2} ${cunits}"
Shear Modulus 2 = 42.2030378281338 GPa
print "Poisson Ratio = ${poissonratio}"
Poisson Ratio = 0.279929504563581

variable rho equal density
print "density (g/cm^3) = ${rho}"
density (g/cm^3) = 1.95455215284348
Total wall time: 0:01:03
