units           real
atom_style      full
boundary        p p p

pair_style      lj/cut 5.000
bond_style      harmonic
angle_style     hybrid cosine/periodic fourier
dihedral_style  harmonic

special_bonds   lj/coul 0.0 0.0 1.0
dielectric      1.0
pair_modify     tail yes mix arithmetic
box tilt        large

The 'box' command has been removed and will be ignored

read_data       ./dat/data.333U-50C-14-vasp
Reading data file ...
  triclinic box = (0 0 0) to (16.859739 12.609509 18.640259) with tilt (-8.851026 0.45889 0.205421)
WARNING: Triclinic box skew is large. LAMMPS will run inefficiently. (src/domain.cpp:221)
  1 by 1 by 1 MPI processor grid
  reading atoms ...
  371 atoms
  scanning bonds ...
  4 = max bonds/atom
  scanning angles ...
  6 = max angles/atom
  scanning dihedrals ...
  30 = max dihedrals/atom
  triclinic box = (0 0 0) to (16.859739 12.609509 18.640259) with tilt (-8.851026 0.45889 0.205421)
WARNING: Triclinic box skew is large. LAMMPS will run inefficiently. (src/domain.cpp:221)
  1 by 1 by 1 MPI processor grid
  reading bonds ...
  396 bonds
  reading angles ...
  751 angles
  reading dihedrals ...
  942 dihedrals
Finding 1-2 1-3 1-4 neighbors ...
  special bond factors lj:    0        0        1       
  special bond factors coul:  0        0        1       
     4 = max # of 1-2 neighbors
    10 = max # of 1-3 neighbors
    14 = max # of special neighbors
  special bonds CPU = 0.000 seconds
  read_data CPU = 0.007 seconds

#### Atom Groupings ####
group           fram     id   1:371
371 atoms in group fram
#### END Atom Groupings ####

compute am all property/atom mass
dump        atom_pos all extxyz 100 ./output/333U-50C-14-vasp.lammpstrj
dump_modify atom_pos element Si H C O mass yes
thermo          1000
thermo_style    custom step temp pe ke etotal press vol density

variable up equal 2e-2
variable cfac equal 1.0e-4
variable cunits string GPa

# Define minimization parameters
variable etol equal 0.0
variable ftol equal 1.0e-10
variable maxiter equal 100000
variable maxeval equal 100000
variable dmax equal 1.0e-2

variable temp equal 300.0
variable thermal_damp index 100.0
variable pressure_damp index 500.0

fix relax all box/relax aniso 0.0 vmax 0.001
unfix relax
minimize ${etol} ${ftol} ${maxiter} ${maxeval}
minimize 0 ${ftol} ${maxiter} ${maxeval}
minimize 0 1e-10 ${maxiter} ${maxeval}
minimize 0 1e-10 100000 ${maxeval}
minimize 0 1e-10 100000 100000
Generated 6 of 6 mixed pair_coeff terms from arithmetic mixing rule
Neighbor list info ...
  update: every = 1 steps, delay = 0 steps, check = yes
  max neighbors/atom: 2000, page size: 100000
  master list distance cutoff = 7
  ghost atom cutoff = 7
  binsize = 3.5, bins = 8 4 6
  1 neighbor lists, perpetual/occasional/extra = 1 0 0
  (1) pair lj/cut, perpetual
      attributes: half, newton on
      pair build: half/bin/newton/tri
      stencil: half/bin/3d/tri
      bin: standard
WARNING: Inconsistent image flags
For more information see https://docs.lammps.org/err0027 (src/domain.cpp:1052)
Per MPI rank memory allocation (min/avg/max) = 19.51 | 19.51 | 19.51 Mbytes
   Step          Temp          PotEng         KinEng         TotEng         Press          Volume        Density    
         0   0              1434.6153      0              1434.6153      96600.578      3962.7892      1.6800742    
       113   0              105.96069      0              105.96069      15168.577      3962.7892      1.6800742    
Loop time of 0.0782143 on 1 procs for 113 steps with 371 atoms

99.9% CPU use with 1 MPI tasks x 1 OpenMP threads

Minimization stats:
  Stopping criterion = linesearch alpha is zero
  Energy initial, next-to-last, final = 
      1434.61534669576   105.960692854437   105.960692854437
  Force two-norm initial, final = 878.76511 18.122884
  Force max component initial, final = 95.766221 4.2792975
  Final line search alpha, max atom move = 2.8585093e-11 1.2232412e-10
  Iterations, force evaluations = 113 278

MPI task timing breakdown:
Section |  min time  |  avg time  |  max time  |%varavg| %total
---------------------------------------------------------------
Pair    | 0.051208   | 0.051208   | 0.051208   |   0.0 | 65.47
Bond    | 0.012742   | 0.012742   | 0.012742   |   0.0 | 16.29
Neigh   | 0.010221   | 0.010221   | 0.010221   |   0.0 | 13.07
Comm    | 0.0016904  | 0.0016904  | 0.0016904  |   0.0 |  2.16
Output  | 0.00055406 | 0.00055406 | 0.00055406 |   0.0 |  0.71
Modify  | 0          | 0          | 0          |   0.0 |  0.00
Other   |            | 0.001799   |            |       |  2.30

Nlocal:            371 ave         371 max         371 min
Histogram: 1 0 0 0 0 0 0 0 0 0
Nghost:           2415 ave        2415 max        2415 min
Histogram: 1 0 0 0 0 0 0 0 0 0
Neighs:          23636 ave       23636 max       23636 min
Histogram: 1 0 0 0 0 0 0 0 0 0

Total # of neighbors = 23636
Ave neighs/atom = 63.708895
Ave special neighs/atom = 6.1832884
Neighbor list builds = 4
Dangerous builds = 0

# Generating the full routine as described in the paper for UFF
fix nvt_relax   all nvt temp 300 300 ${thermal_damp}
fix nvt_relax   all nvt temp 300 300 100.0
run 100000      # 100 picoseconds
Generated 6 of 6 mixed pair_coeff terms from arithmetic mixing rule
WARNING: Inconsistent image flags
For more information see https://docs.lammps.org/err0027 (src/domain.cpp:1052)
Per MPI rank memory allocation (min/avg/max) = 19.45 | 19.45 | 19.45 Mbytes
   Step          Temp          PotEng         KinEng         TotEng         Press          Volume        Density    
       113   0              105.96069      0              105.96069      15168.577      3962.7892      1.6800742    
      1000   65.812237      173.87327      72.584298      246.45757      19318.175      3962.7892      1.6800742    
      2000   259.9646       409.64174      286.71488      696.35662      13346.374      3962.7892      1.6800742    
      3000   290.04717      402.90802      319.89294      722.80096      19693.128      3962.7892      1.6800742    
      4000   310.26318      394.9244       342.18917      737.11357      25711.276      3962.7892      1.6800742    
      5000   296.47765      358.61088      326.98512      685.596        18560.693      3962.7892      1.6800742    
      6000   316.58317      398.77588      349.15949      747.93538      17451.849      3962.7892      1.6800742    
      7000   269.09868      381.41258      296.78886      678.20144      28328.946      3962.7892      1.6800742    
      8000   322.06607      384.53979      355.20658      739.74636      11113.212      3962.7892      1.6800742    
      9000   290.56374      379.32963      320.46266      699.7923       16110.616      3962.7892      1.6800742    
     10000   274.32777      381.00276      302.55602      683.55878      17543.076      3962.7892      1.6800742    
     11000   314.81435      385.37382      347.20866      732.58248      19991.933      3962.7892      1.6800742    
     12000   297.6388       393.53785      328.26575      721.8036       20325.768      3962.7892      1.6800742    
     13000   312.31308      394.34943      344.45001      738.79944      19365.636      3962.7892      1.6800742    
     14000   298.90406      365.99923      329.66121      695.66043      18721.686      3962.7892      1.6800742    
     15000   288.30652      379.81401      317.97318      697.7872       13875.491      3962.7892      1.6800742    
     16000   309.73226      374.81875      341.60362      716.42237      15237.68       3962.7892      1.6800742    
     17000   281.96895      351.83365      310.98347      662.81712      18910.387      3962.7892      1.6800742    
     18000   292.98817      378.95721      323.13657      702.09379      13986.844      3962.7892      1.6800742    
     19000   305.33907      359.17257      336.75838      695.93095      18263.022      3962.7892      1.6800742    
     20000   306.79177      357.16035      338.36055      695.5209       14356.511      3962.7892      1.6800742    
     21000   299.90394      380.21022      330.76397      710.97419      13828.77       3962.7892      1.6800742    
     22000   276.9951       381.40349      305.49782      686.90132      11427.208      3962.7892      1.6800742    
     23000   308.74999      390.66838      340.52027      731.18866      17650.005      3962.7892      1.6800742    
     24000   305.91285      359.41703      337.3912       696.80823      12176.246      3962.7892      1.6800742    
     25000   307.37644      367.20173      339.00539      706.20712      15975.047      3962.7892      1.6800742    
     26000   299.04119      351.85093      329.81245      681.66337      13773.185      3962.7892      1.6800742    
     27000   287.76309      370.03872      317.37384      687.41256      16764.039      3962.7892      1.6800742    
     28000   306.73188      376.76849      338.29451      715.063        19283.135      3962.7892      1.6800742    
     29000   284.37257      376.61358      313.63443      690.24801      13270.802      3962.7892      1.6800742    
     30000   318.97608      376.78314      351.79863      728.58177      14929.434      3962.7892      1.6800742    
     31000   299.90162      380.7949       330.76141      711.55631      13257.131      3962.7892      1.6800742    
     32000   295.84693      375.5346       326.2895       701.8241       20060.848      3962.7892      1.6800742    
     33000   322.71414      398.95415      355.92134      754.87549      14892.023      3962.7892      1.6800742    
     34000   276.75586      384.41193      305.23396      689.64589      17087.555      3962.7892      1.6800742    
     35000   319.93586      379.05419      352.85717      731.91136      15206.529      3962.7892      1.6800742    
     36000   300.69428      359.74167      331.63564      691.37731      12802.241      3962.7892      1.6800742    
     37000   291.13827      395.10611      321.09632      716.20242      21707.309      3962.7892      1.6800742    
     38000   339.42782      357.81316      374.35484      732.16801      12163.532      3962.7892      1.6800742    
     39000   294.28815      365.24242      324.57032      689.81274      14691.951      3962.7892      1.6800742    
     40000   302.86994      357.36202      334.03517      691.39719      15872.524      3962.7892      1.6800742    
     41000   293.60442      356.15802      323.81623      679.97425      14805.32       3962.7892      1.6800742    
     42000   311.17769      383.64272      343.19778      726.8405       19086.806      3962.7892      1.6800742    
     43000   284.09946      380.16738      313.33322      693.5006       8321.0893      3962.7892      1.6800742    
     44000   312.82647      364.31856      345.01623      709.33479      17277.063      3962.7892      1.6800742    
     45000   299.60512      377.10248      330.4344       707.53687      19003.022      3962.7892      1.6800742    
     46000   298.69514      362.72893      329.43078      692.15971      16372.719      3962.7892      1.6800742    
     47000   299.60164      383.92786      330.43057      714.35843      13975.038      3962.7892      1.6800742    
     48000   302.2738       390.05502      333.37768      723.43271      10727.221      3962.7892      1.6800742    
     49000   305.33846      369.37384      336.7577       706.13155      13467.748      3962.7892      1.6800742    
     50000   297.47242      345.83241      328.08224      673.91466      15155.663      3962.7892      1.6800742    
     51000   314.23892      366.41712      346.57402      712.99113      15857.245      3962.7892      1.6800742    
     52000   288.32345      365.63333      317.99185      683.62518      17505.703      3962.7892      1.6800742    
     53000   303.55394      385.3881       334.78955      720.17765      15015.223      3962.7892      1.6800742    
     54000   292.9009       352.58853      323.04032      675.62885      18719.813      3962.7892      1.6800742    
     55000   314.38794      359.76947      346.73837      706.50785      14402.718      3962.7892      1.6800742    
     56000   317.46049      382.68425      350.12708      732.81133      17369.755      3962.7892      1.6800742    
     57000   294.48539      368.32771      324.78785      693.11556      15539.828      3962.7892      1.6800742    
     58000   309.14997      370.68567      340.96141      711.64709      20721.806      3962.7892      1.6800742    
     59000   293.16856      373.35045      323.33552      696.68597      23269.827      3962.7892      1.6800742    
     60000   296.26403      369.15075      326.74952      695.90026      19177.484      3962.7892      1.6800742    
     61000   308.8631       385.01957      340.64503      725.6646       15774.605      3962.7892      1.6800742    
     62000   295.92113      356.0994       326.37133      682.47073      16459.423      3962.7892      1.6800742    
     63000   306.69461      367.78322      338.2534       706.03661      14746.282      3962.7892      1.6800742    
     64000   280.58457      350.93884      309.45665      660.39548      18551.068      3962.7892      1.6800742    
     65000   305.25092      372.80359      336.66115      709.46474      22531.753      3962.7892      1.6800742    
     66000   312.67751      361.71733      344.85194      706.56928      14766.075      3962.7892      1.6800742    
     67000   326.41528      335.57691      360.00332      695.58023      17818.628      3962.7892      1.6800742    
     68000   312.49657      357.01458      344.65238      701.66696      19285.417      3962.7892      1.6800742    
     69000   295.57143      354.98722      325.98564      680.97287      15711.307      3962.7892      1.6800742    
     70000   287.09954      377.24104      316.642        693.88304      17607.997      3962.7892      1.6800742    
     71000   278.25583      342.05789      306.88828      648.94617      16611.946      3962.7892      1.6800742    
     72000   294.96347      374.03548      325.31513      699.35061      11784.92       3962.7892      1.6800742    
     73000   286.90491      352.31616      316.42734      668.7435       18985.401      3962.7892      1.6800742    
     74000   299.71916      344.83999      330.56018      675.40017      14120.28       3962.7892      1.6800742    
     75000   327.66259      369.46504      361.37898      730.84403      21225.959      3962.7892      1.6800742    
     76000   307.56869      361.48177      339.21743      700.6992       17768.48       3962.7892      1.6800742    
     77000   291.48446      361.50826      321.47813      682.98639      17583.29       3962.7892      1.6800742    
     78000   283.76591      374.38046      312.96535      687.34581      18257.19       3962.7892      1.6800742    
     79000   281.59207      360.00687      310.56782      670.57468      17072.404      3962.7892      1.6800742    
     80000   318.27985      349.74144      351.03076      700.77219      18553.315      3962.7892      1.6800742    
     81000   303.90169      343.8903       335.17308      679.06338      15177.227      3962.7892      1.6800742    
     82000   300.78437      377.92846      331.73499      709.66345      16851.547      3962.7892      1.6800742    
     83000   292.8342       383.24995      322.96675      706.21671      16742.582      3962.7892      1.6800742    
     84000   289.66462      380.81249      319.47103      700.28353      15512.641      3962.7892      1.6800742    
     85000   298.02736      353.60763      328.69429      682.30192      13633.272      3962.7892      1.6800742    
     86000   320.52942      387.87442      353.5118       741.38622      16512.916      3962.7892      1.6800742    
     87000   304.59479      335.56589      335.93751      671.5034       11975.09       3962.7892      1.6800742    
     88000   300.07668      361.57396      330.95448      692.52845      12319.12       3962.7892      1.6800742    
     89000   304.22585      383.65563      335.5306       719.18623      16801.108      3962.7892      1.6800742    
     90000   298.80327      352.61318      329.55004      682.16322      14240.86       3962.7892      1.6800742    
     91000   306.62587      377.61334      338.17759      715.79093      19374.141      3962.7892      1.6800742    
     92000   295.30044      364.29737      325.68677      689.98414      18439.971      3962.7892      1.6800742    
     93000   316.69815      378.1986       349.28631      727.48491      15518.715      3962.7892      1.6800742    
     94000   291.65826      380.27091      321.66982      701.94073      19192.517      3962.7892      1.6800742    
     95000   273.70675      355.86042      301.8711       657.73153      14862.793      3962.7892      1.6800742    
     96000   298.04638      367.81111      328.71526      696.52638      18609.914      3962.7892      1.6800742    
     97000   308.55697      403.4978       340.3074       743.80519      14148.727      3962.7892      1.6800742    
     98000   301.34961      346.94323      332.3584       679.30162      14719.54       3962.7892      1.6800742    
     99000   296.88037      368.67961      327.42928      696.10889      22918.283      3962.7892      1.6800742    
    100000   307.86941      373.75165      339.54909      713.30074      15848.971      3962.7892      1.6800742    
    100113   320.56844      370.99251      353.55485      724.54736      24215.122      3962.7892      1.6800742    
WARNING: Bond/angle/dihedral extent > half of periodic box length (src/domain.cpp:1174)
Loop time of 24.2378 on 1 procs for 100000 steps with 371 atoms

Performance: 356.468 ns/day, 0.067 hours/ns, 4125.791 timesteps/s, 1.531 Matom-step/s
99.8% CPU use with 1 MPI tasks x 1 OpenMP threads

MPI task timing breakdown:
Section |  min time  |  avg time  |  max time  |%varavg| %total
---------------------------------------------------------------
Pair    | 14.266     | 14.266     | 14.266     |   0.0 | 58.86
Bond    | 3.7023     | 3.7023     | 3.7023     |   0.0 | 15.28
Neigh   | 4.6444     | 4.6444     | 4.6444     |   0.0 | 19.16
Comm    | 0.58371    | 0.58371    | 0.58371    |   0.0 |  2.41
Output  | 0.53437    | 0.53437    | 0.53437    |   0.0 |  2.20
Modify  | 0.3703     | 0.3703     | 0.3703     |   0.0 |  1.53
Other   |            | 0.1362     |            |       |  0.56

Nlocal:            371 ave         371 max         371 min
Histogram: 1 0 0 0 0 0 0 0 0 0
Nghost:           2423 ave        2423 max        2423 min
Histogram: 1 0 0 0 0 0 0 0 0 0
Neighs:          23516 ave       23516 max       23516 min
Histogram: 1 0 0 0 0 0 0 0 0 0

Total # of neighbors = 23516
Ave neighs/atom = 63.385445
Ave special neighs/atom = 6.1832884
Neighbor list builds = 1928
Dangerous builds = 0
unfix           nvt_relax

fix npt_relax   all npt temp 300 300 ${thermal_damp} iso 0 0 ${pressure_damp}
fix npt_relax   all npt temp 300 300 100.0 iso 0 0 ${pressure_damp}
fix npt_relax   all npt temp 300 300 100.0 iso 0 0 500.0
run 100000      # 100 picoseconds
Generated 6 of 6 mixed pair_coeff terms from arithmetic mixing rule
WARNING: Inconsistent image flags
For more information see https://docs.lammps.org/err0027 (src/domain.cpp:1052)
WARNING: Bond/angle/dihedral extent > half of periodic box length (src/domain.cpp:1174)
Per MPI rank memory allocation (min/avg/max) = 19.49 | 19.49 | 19.49 Mbytes
   Step          Temp          PotEng         KinEng         TotEng         Press          Volume        Density    
    100113   320.56844      370.99251      353.55485      724.54736      24215.122      3962.7892      1.6800742    
    101000   289.26643      356.03907      319.03187      675.07094      112.97406      4252.5115      1.5656112    
    102000   332.90467      355.86367      367.16047      723.02414     -30.264035      4256.2333      1.5642422    
    103000   298.79059      347.65075      329.53606      677.18681      4514.0158      4211.3845      1.5809005    
    104000   317.62127      358.06501      350.3044       708.36941      1558.4538      4247.2547      1.5675489    
    105000   285.56936      338.22961      314.95436      653.18398     -1171.7328      4194.7755      1.58716      
    106000   293.06571      374.18773      323.22209      697.40982     -2948.4078      4223.6368      1.5763144    
    107000   309.27211      368.69826      341.09612      709.79438     -3321.871       4255.4773      1.5645201    
    108000   289.9625       341.19334      319.79955      660.99289     -2335.2015      4221.8208      1.5769925    
    109000   318.01277      340.81351      350.7362       691.54971      1640.785       4249.1272      1.5668582    
    110000   311.89797      361.33192      343.99218      705.3241      -5819.9989      4221.4019      1.577149     
    111000   317.73772      330.70725      350.43285      681.1401       285.98273      4210.5389      1.5812179    
    112000   282.01504      330.31513      311.03431      641.34944      1902.6105      4224.6596      1.5759328    
    113000   313.27091      342.24238      345.5064       687.74878      2554.2974      4196.249       1.5866026    
    114000   298.58471      381.5766       329.30899      710.88559      769.32592      4220.3337      1.5775482    
    115000   297.97822      349.98156      328.6401       678.62166     -2802.8582      4226.6404      1.5751942    
    116000   320.86299      353.67789      353.8797       707.55759      4089.9095      4219.0719      1.57802      
    117000   299.32139      330.92228      330.12148      661.04376     -3674.6316      4230.5348      1.5737442    
    118000   285.89272      366.23682      315.311        681.54783     -1621.0605      4254.9618      1.5647096    
    119000   307.74248      363.69984      339.4091       703.10894      530.65821      4192.0873      1.5881777    
    120000   320.32514      361.76012      353.28651      715.04662     -8632.2372      4229.9276      1.5739701    
    121000   297.54481      349.19517      328.16208      677.35725      4503.6396      4196.5923      1.5864728    
    122000   314.25792      363.52667      346.59498      710.12165     -347.76278      4193.1838      1.5877624    
    123000   306.50247      344.04751      338.04149      682.089       -1543.2388      4205.0567      1.5832794    
    124000   294.17104      348.35716      324.44115      672.79831     -612.33551      4229.9987      1.5739437    
    125000   297.67494      360.84375      328.30561      689.14936     -3317.5955      4183.966       1.5912605    
    126000   306.97727      362.66583      338.56515      701.23098     -2308.3612      4215.4721      1.5793675    
    127000   299.93267      379.92158      330.79566      710.71724     -1900.6995      4216.8299      1.578859     
    128000   300.1501       354.14512      331.03546      685.18058     -7544.5234      4293.8306      1.5505455    
    129000   319.58873      356.61287      352.47432      709.0872       278.69808      4192.8728      1.5878802    
    130000   301.97555      344.83066      333.04875      677.87941     -7212.9309      4245.1912      1.5683109    
    131000   293.39994      351.12474      323.59071      674.71545     -681.93955      4238.4812      1.5707937    
    132000   310.52805      373.61986      342.4813       716.10116      5736.7346      4213.8607      1.5799715    
    133000   293.62814      357.35859      323.84239      681.20099     -2798.7074      4249.4581      1.5667362    
    134000   291.94809      358.82228      321.98946      680.81174     -970.25541      4266.7011      1.5604045    
    135000   310.18473      358.63513      342.10266      700.73778      3241.885       4242.1512      1.5694348    
    136000   290.02144      339.77212      319.86456      659.63668     -4037.5527      4247.2832      1.5675384    
    137000   301.98165      363.50533      333.05548      696.5608       2558.1146      4228.3582      1.5745543    
    138000   314.6032       347.54852      346.97578      694.5243       5764.4646      4171.8841      1.5958688    
    139000   297.17803      336.21716      327.75756      663.97473     -3855.5956      4240.6467      1.5699916    
    140000   290.83023      372.41832      320.75657      693.1749       2407.5022      4173.3691      1.5953009    
    141000   318.61634      347.413        351.40187      698.81487      1293.14        4222.9734      1.5765621    
    142000   308.90514      331.00895      340.6914       671.70035      2970.494       4214.8788      1.5795898    
    143000   292.32383      346.06458      322.40387      668.46845     -2212.3533      4232.5748      1.5729857    
    144000   301.75407      350.42703      332.80447      683.2315      -4927.1667      4254.9954      1.5646973    
    145000   295.27196      348.38721      325.65537      674.04257     -7537.7191      4238.2851      1.5708664    
    146000   316.44961      352.35349      349.01218      701.36567      3185.5309      4216.5751      1.5789544    
    147000   295.35064      359.53391      325.74214      685.27604     -5233.6007      4258.6233      1.5633643    
    148000   288.75874      352.62691      318.47193      671.09884     -2261.9004      4218.1915      1.5783493    
    149000   290.2839       351.13695      320.15403      671.29098     -2519.7778      4205.2477      1.5832075    
    150000   309.75459      338.49617      341.62825      680.12442     -1553.1048      4179.354       1.5930165    
    151000   313.86846      338.29604      346.16544      684.46148     -8901.2028      4232.3648      1.5730638    
    152000   301.04039      344.41546      332.01736      676.43283      10178.845      4187.3893      1.5899596    
    153000   328.28342      351.54837      362.06369      713.61206     -812.30324      4263.0334      1.561747     
    154000   295.77641      368.59224      326.21172      694.80396     -3582.3543      4242.2055      1.5694147    
    155000   296.47939      373.20404      326.98703      700.19107     -3036.5831      4245.3868      1.5682387    
    156000   304.71839      347.56687      336.07383      683.6407       724.04741      4184.9764      1.5908763    
    157000   326.00657      355.09585      359.55255      714.6484      -2927.333       4213.1765      1.580228     
    158000   292.64802      353.38685      322.76142      676.14827      221.82173      4253.3678      1.565296     
    159000   314.55613      368.3588       346.92387      715.28267      2699.0579      4225.2404      1.5757162    
    160000   289.13543      361.54621      318.88739      680.43359     -1410.0284      4236.7474      1.5714366    
    161000   284.69968      353.53813      313.99519      667.53332      729.36664      4241.3248      1.5697406    
    162000   319.35378      357.41345      352.2152       709.62865      7061.0976      4238.9683      1.5706132    
    163000   295.5445       356.07647      325.95594      682.03242      62.121721      4264.0154      1.5613874    
    164000   335.99291      373.61929      370.56648      744.18577     -575.04109      4235.2905      1.5719771    
    165000   283.28704      368.80129      312.4372       681.23849     -679.96463      4227.479       1.5748818    
    166000   317.35185      359.64011      350.00726      709.64737     -29.551533      4201.3277      1.5846847    
    167000   299.01462      354.99079      329.78314      684.77393     -6983.0094      4233.2782      1.5727244    
    168000   313.18115      349.69329      345.4074       695.10069      705.82172      4254.2817      1.5649598    
    169000   308.19483      350.08732      339.90799      689.99531     -4098.285       4210.1025      1.5813818    
    170000   299.58483      337.59151      330.41203      668.00353      1227.4474      4214.9718      1.579555     
    171000   291.4815       369.62303      321.47486      691.09789     -3826.2087      4254.743       1.5647901    
    172000   311.93081      321.59761      344.02841      665.62602     -2465.2988      4227.2036      1.5749844    
    173000   311.36389      360.00258      343.40314      703.40573     -2959.242       4243.724       1.5688531    
    174000   301.94314      350.09585      333.013        683.10885     -1191.2596      4248.5739      1.5670622    
    175000   272.17851      342.55497      300.18561      642.74057     -1089.5917      4248.9131      1.5669371    
    176000   299.50734      347.6383       330.32656      677.96485      1213.968       4252.7931      1.5655075    
    177000   305.87358      362.55185      337.34788      699.89973      2001.2616      4244.4826      1.5685727    
    178000   304.74479      338.53057      336.10294      674.63352     -1227.2836      4253.2336      1.5653454    
    179000   278.76175      339.36436      307.44626      646.81062      3968.5435      4228.3624      1.5745528    
    180000   310.53795      333.42116      342.49222      675.91338      10.323554      4236.7464      1.5714369    
    181000   288.02138      359.48712      317.6587       677.14581     -42.489743      4300.031       1.5483097    
    182000   294.21639      324.89306      324.49118      649.38424      5103.8975      4232.5153      1.5730078    
    183000   301.14659      362.45085      332.13449      694.58534      5408.4552      4232.41        1.573047     
    184000   291.07126      341.30697      321.02241      662.32938      343.87246      4266.7999      1.5603684    
    185000   289.06362      373.15218      318.80819      691.96037     -9079.8251      4310.9138      1.544401     
    186000   284.4523       325.02569      313.72236      638.74806     -443.15999      4221.7693      1.5770117    
    187000   310.67041      348.69265      342.6383       691.33096     -938.75524      4269.8649      1.5592483    
    188000   292.65694      336.49195      322.77126      659.26321      1969.3714      4282.982       1.554473     
    189000   302.59051      357.43156      333.72699      691.15854      1038.1102      4236.0817      1.5716835    
    190000   326.90522      363.44227      360.54367      723.98594      124.81964      4281.2667      1.5550958    
    191000   296.46913      344.95679      326.97572      671.93251      1262.9056      4217.181       1.5787275    
    192000   305.68211      353.55816      337.13671      690.69487     -4364.762       4270.4606      1.5590308    
    193000   282.53854      341.04666      311.61167      652.65833     -2334.0777      4256.3642      1.5641941    
    194000   300.44004      340.36003      331.35523      671.71526     -5666.2235      4314.1483      1.5432431    
    195000   295.33691      383.14499      325.72699      708.87199     -5948.5603      4313.8202      1.5433605    
    196000   315.39327      336.45599      347.84714      684.30314     -396.24611      4299.9542      1.5483374    
    197000   311.12871      369.87008      343.14377      713.01385      6572.7577      4225.5272      1.5756092    
    198000   304.75536      330.28553      336.1146       666.40013      4621.1868      4258.6548      1.5633528    
    199000   301.87866      330.62215      332.94189      663.56404     -4277.4851      4252.012       1.5657951    
    200000   308.42121      356.39699      340.15766      696.55465     -1140.8653      4249.9797      1.5665439    
    200113   312.04475      339.1452       344.15407      683.29927     -1710.9763      4262.9701      1.5617702    
Loop time of 28.6253 on 1 procs for 100000 steps with 371 atoms

Performance: 301.831 ns/day, 0.080 hours/ns, 3493.411 timesteps/s, 1.296 Matom-step/s
99.3% CPU use with 1 MPI tasks x 1 OpenMP threads

MPI task timing breakdown:
Section |  min time  |  avg time  |  max time  |%varavg| %total
---------------------------------------------------------------
Pair    | 15.07      | 15.07      | 15.07      |   0.0 | 52.65
Bond    | 5.3616     | 5.3616     | 5.3616     |   0.0 | 18.73
Neigh   | 5.7544     | 5.7544     | 5.7544     |   0.0 | 20.10
Comm    | 0.62673    | 0.62673    | 0.62673    |   0.0 |  2.19
Output  | 0.7394     | 0.7394     | 0.7394     |   0.0 |  2.58
Modify  | 0.91345    | 0.91345    | 0.91345    |   0.0 |  3.19
Other   |            | 0.1593     |            |       |  0.56

Nlocal:            371 ave         371 max         371 min
Histogram: 1 0 0 0 0 0 0 0 0 0
Nghost:           2295 ave        2295 max        2295 min
Histogram: 1 0 0 0 0 0 0 0 0 0
Neighs:          21904 ave       21904 max       21904 min
Histogram: 1 0 0 0 0 0 0 0 0 0

Total # of neighbors = 21904
Ave neighs/atom = 59.040431
Ave special neighs/atom = 6.1832884
Neighbor list builds = 2261
Dangerous builds = 0
unfix           npt_relax

# fix nvt_heat    all nvt temp 300 1000 ${thermal_damp}
# run 100000      # 100 picoseconds
# unfix           nvt_heat
#
# fix npt_heat    all npt temp 1000 1000 ${thermal_damp} iso 0 0 ${pressure_damp}
# run 100000      # 100 picoseconds
# unfix           npt_heat
#
# fix cooling_npt all npt temp 1000 300 ${thermal_damp} iso 0 0 ${pressure_damp}
# run 700000      # 700 picoseconds
# unfix           cooling_npt
#
# fix npt_final   all npt temp 300 300 ${thermal_damp} iso 0 0 100
# run 100000      # 100 picoseconds
# unfix           npt_final

# density computation
variable rho equal density
fix integrate  all npt temp ${temp} ${temp} ${thermal_damp} iso 0 0 ${pressure_damp}
fix integrate  all npt temp 300 ${temp} ${thermal_damp} iso 0 0 ${pressure_damp}
fix integrate  all npt temp 300 300 ${thermal_damp} iso 0 0 ${pressure_damp}
fix integrate  all npt temp 300 300 100.0 iso 0 0 ${pressure_damp}
fix integrate  all npt temp 300 300 100.0 iso 0 0 500.0
fix rho50k all ave/time 10 5000 50000 v_rho mode scalar ave one
run 50000
Generated 6 of 6 mixed pair_coeff terms from arithmetic mixing rule
WARNING: Inconsistent image flags
For more information see https://docs.lammps.org/err0027 (src/domain.cpp:1052)
Per MPI rank memory allocation (min/avg/max) = 19.49 | 19.49 | 19.49 Mbytes
   Step          Temp          PotEng         KinEng         TotEng         Press          Volume        Density    
    200113   312.04475      339.1452       344.15407      683.29927     -1710.9763      4262.9701      1.5617702    
    201000   264.47876      353.74416      291.69355      645.43771     -1216.2427      4283.793       1.5541787    
    202000   318.95672      336.919        351.77727      688.69628     -751.14551      4261.0963      1.562457     
    203000   289.93982      340.95046      319.77454      660.725       -3944.9787      4276.687       1.556761     
    204000   302.34627      357.16406      333.45762      690.62168      2815.5737      4253.8142      1.5651317    
    205000   268.33164      322.25515      295.94289      618.19803      857.39084      4285.1948      1.5536703    
    206000   306.75096      340.85024      338.31555      679.16579     -1208.5161      4259.8926      1.5628985    
    207000   300.05666      332.339        330.93241      663.27141      3919.9251      4246.9784      1.5676509    
    208000   317.98753      338.1483       350.70836      688.85666     -51.677444      4262.5838      1.5619118    
    209000   278.27947      327.23688      306.91435      634.15122      1993.0838      4229.4752      1.5741385    
    210000   298.42617      344.21016      329.13414      673.3443       10106.341      4204.5694      1.5834629    
    211000   280.86141      363.0758       309.76197      672.83777      2579.2674      4240.553       1.5700263    
    212000   293.13775      332.79691      323.30154      656.09845     -5643.7727      4255.2065      1.5646197    
    213000   316.20046      338.74972      348.7374       687.48711      2120.762       4228.5895      1.5744682    
    214000   307.78965      324.30118      339.46112      663.7623      -2904.2508      4303.8797      1.5469251    
    215000   290.32535      343.0183       320.19975      663.21805      691.82822      4254.0859      1.5650318    
    216000   311.42103      348.76287      343.46616      692.22904      3392.3499      4233.8018      1.5725299    
    217000   296.30471      339.68597      326.79438      666.48035     -356.54396      4260.003       1.562858     
    218000   305.92105      307.8037       337.40024      645.20394     -2885.0449      4247.6241      1.5674126    
    219000   292.09167      321.18409      322.14782      643.33191     -3542.3422      4241.1797      1.5697943    
    220000   295.20302      344.75077      325.57933      670.3301       3324.4164      4235.9744      1.5717233    
    221000   282.52651      331.10916      311.59841      642.70758      4815.2706      4192.9035      1.5878686    
    222000   299.67636      321.3606       330.51297      651.87358      1725.7619      4224.9346      1.5758302    
    223000   315.45827      330.37658      347.91884      678.29543     -5030.6168      4295.6573      1.5498861    
    224000   297.40341      324.41461      328.00614      652.42075     -5232.3635      4271.4261      1.5586784    
    225000   302.53829      353.42269      333.6694       687.09208      4073.9356      4209.6641      1.5815465    
    226000   290.98664      323.89037      320.92908      644.81945     -1237.7402      4244.3632      1.5686168    
    227000   314.67103      317.94924      347.05059      664.99983     -6017.3027      4238.41        1.5708201    
    228000   320.34818      368.89595      353.31192      722.20787      2357.5827      4215.1288      1.5794961    
    229000   290.57364      342.46897      320.47359      662.94256     -4597.9114      4224.6743      1.5759273    
    230000   296.04487      338.99299      326.5078       665.50079      4090.7414      4227.4357      1.5748979    
    231000   294.71619      311.24139      325.04241      636.28379      1638.951       4203.2282      1.5839682    
    232000   311.29142      333.3233       343.32322      676.64651      200.04896      4213.3529      1.5801619    
    233000   282.77322      331.53598      311.8705       643.40648      5271.1249      4215.1631      1.5794833    
    234000   303.86518      340.01245      335.13282      675.14527      1818.956       4278.119       1.5562399    
    235000   273.83453      330.24532      302.01202      632.25734     -4495.7267      4247.4649      1.5674714    
    236000   306.50352      322.23248      338.04264      660.27512     -1717.2593      4265.5466      1.5608268    
    237000   296.08422      339.96478      326.5512       666.51598      4544.5509      4218.4766      1.5782426    
    238000   310.23937      350.28951      342.16291      692.45242      4651.4937      4262.6049      1.561904     
    239000   306.82368      318.93015      338.39575      657.3259       6447.4318      4227.6795      1.5748071    
    240000   314.00345      314.08769      346.31432      660.40202     -3745.3652      4281.2637      1.5550969    
    241000   320.89497      338.79587      353.91497      692.71084     -557.71931      4238.9453      1.5706218    
    242000   300.50661      338.06275      331.42865      669.4914       1156.8649      4239.3877      1.5704578    
    243000   289.66624      323.24748      319.47282      642.72029      933.23178      4219.2051      1.5779701    
    244000   285.23894      357.45024      314.58995      672.04019      4751.6509      4206.1913      1.5828523    
    245000   288.0718       348.08231      317.7143       665.79661     -6903.5344      4246.6632      1.5677673    
    246000   304.09529      323.17161      335.38661      658.55821     -819.93169      4260.6123      1.5626345    
    247000   314.53879      359.56862      346.90474      706.47336      4288.769       4189.2338      1.5892595    
    248000   294.6431       333.90362      324.96179      658.86541     -13.700466      4180.3066      1.5926535    
    249000   299.28178      337.56981      330.07779      667.6476      -255.66615      4195.9529      1.5867146    
    250000   317.02153      357.41653      349.64296      707.05949      2429.4414      4205.3372      1.5831738    
    250113   321.52441      338.34322      354.60918      692.9524      -3052.6512      4260.9841      1.5624981    
Loop time of 14.4894 on 1 procs for 50000 steps with 371 atoms

Performance: 298.150 ns/day, 0.080 hours/ns, 3450.810 timesteps/s, 1.280 Matom-step/s
99.8% CPU use with 1 MPI tasks x 1 OpenMP threads

MPI task timing breakdown:
Section |  min time  |  avg time  |  max time  |%varavg| %total
---------------------------------------------------------------
Pair    | 7.6788     | 7.6788     | 7.6788     |   0.0 | 53.00
Bond    | 2.7471     | 2.7471     | 2.7471     |   0.0 | 18.96
Neigh   | 2.9039     | 2.9039     | 2.9039     |   0.0 | 20.04
Comm    | 0.32146    | 0.32146    | 0.32146    |   0.0 |  2.22
Output  | 0.29159    | 0.29159    | 0.29159    |   0.0 |  2.01
Modify  | 0.46572    | 0.46572    | 0.46572    |   0.0 |  3.21
Other   |            | 0.08078    |            |       |  0.56

Nlocal:            371 ave         371 max         371 min
Histogram: 1 0 0 0 0 0 0 0 0 0
Nghost:           2313 ave        2313 max        2313 min
Histogram: 1 0 0 0 0 0 0 0 0 0
Neighs:          22068 ave       22068 max       22068 min
Histogram: 1 0 0 0 0 0 0 0 0 0

Total # of neighbors = 22068
Ave neighs/atom = 59.48248
Ave special neighs/atom = 6.1832884
Neighbor list builds = 1116
Dangerous builds = 0
unfix integrate
unfix rho50k

# Compute initial state
fix 3 all box/relax  aniso 0.0
minimize ${etol} ${ftol} ${maxiter} ${maxeval}
minimize 0 ${ftol} ${maxiter} ${maxeval}
minimize 0 1e-10 ${maxiter} ${maxeval}
minimize 0 1e-10 100000 ${maxeval}
minimize 0 1e-10 100000 100000
Generated 6 of 6 mixed pair_coeff terms from arithmetic mixing rule
WARNING: Energy due to 3 extra global DOFs will be included in minimizer energies
 (src/min.cpp:222)
WARNING: Inconsistent image flags
For more information see https://docs.lammps.org/err0027 (src/domain.cpp:1052)
Per MPI rank memory allocation (min/avg/max) = 20.6 | 20.6 | 20.6 Mbytes
   Step          Temp          PotEng         KinEng         TotEng         Press          Volume        Density    
    250113   321.52441      338.34322      354.60918      692.9524      -3052.6512      4260.9841      1.5624981    
    250325   321.52441      122.01347      354.60918      476.62265      3460.5533      4232.0705      1.5731732    
Loop time of 0.067148 on 1 procs for 212 steps with 371 atoms

100.0% CPU use with 1 MPI tasks x 1 OpenMP threads

Minimization stats:
  Stopping criterion = linesearch alpha is zero
  Energy initial, next-to-last, final = 
       338.34322009205   122.013468788156   122.013468788156
  Force two-norm initial, final = 1197.5827 142.0272
  Force max component initial, final = 714.33558 26.010202
  Final line search alpha, max atom move = 4.6070546e-13 1.1983042e-11
  Iterations, force evaluations = 212 235

MPI task timing breakdown:
Section |  min time  |  avg time  |  max time  |%varavg| %total
---------------------------------------------------------------
Pair    | 0.043424   | 0.043424   | 0.043424   |   0.0 | 64.67
Bond    | 0.013751   | 0.013751   | 0.013751   |   0.0 | 20.48
Neigh   | 0          | 0          | 0          |   0.0 |  0.00
Comm    | 0.0013314  | 0.0013314  | 0.0013314  |   0.0 |  1.98
Output  | 0.0011467  | 0.0011467  | 0.0011467  |   0.0 |  1.71
Modify  | 0          | 0          | 0          |   0.0 |  0.00
Other   |            | 0.007495   |            |       | 11.16

Nlocal:            371 ave         371 max         371 min
Histogram: 1 0 0 0 0 0 0 0 0 0
Nghost:           2277 ave        2277 max        2277 min
Histogram: 1 0 0 0 0 0 0 0 0 0
Neighs:          21917 ave       21917 max       21917 min
Histogram: 1 0 0 0 0 0 0 0 0 0

Total # of neighbors = 21917
Ave neighs/atom = 59.075472
Ave special neighs/atom = 6.1832884
Neighbor list builds = 0
Dangerous builds = 0

variable tmp equal pxx
variable pxx0 equal ${tmp}
variable pxx0 equal 3668.21677267973
variable tmp equal pyy
variable pyy0 equal ${tmp}
variable pyy0 equal 3427.95529492134
variable tmp equal pzz
variable pzz0 equal ${tmp}
variable pzz0 equal 3285.48770633926
variable tmp equal pyz
variable pyz0 equal ${tmp}
variable pyz0 equal 4163.6482020027
variable tmp equal pxz
variable pxz0 equal ${tmp}
variable pxz0 equal -1780.62902814922
variable tmp equal pxy
variable pxy0 equal ${tmp}
variable pxy0 equal -4835.63272096085

variable tmp equal lx
variable lx0 equal ${tmp}
variable lx0 equal 17.3303344083793
variable tmp equal ly
variable ly0 equal ${tmp}
variable ly0 equal 12.8726698961482
variable tmp equal lz
variable lz0 equal ${tmp}
variable lz0 equal 18.9704362523268

# These formulas define the derivatives w.r.t. strain components
# Constants uses $, variables use v_
variable d1 equal -(v_pxx1-${pxx0})/(v_delta/v_len0)*${cfac}
variable d1 equal -(v_pxx1-3668.21677267973)/(v_delta/v_len0)*${cfac}
variable d1 equal -(v_pxx1-3668.21677267973)/(v_delta/v_len0)*0.0001
variable d2 equal -(v_pyy1-${pyy0})/(v_delta/v_len0)*${cfac}
variable d2 equal -(v_pyy1-3427.95529492134)/(v_delta/v_len0)*${cfac}
variable d2 equal -(v_pyy1-3427.95529492134)/(v_delta/v_len0)*0.0001
variable d3 equal -(v_pzz1-${pzz0})/(v_delta/v_len0)*${cfac}
variable d3 equal -(v_pzz1-3285.48770633926)/(v_delta/v_len0)*${cfac}
variable d3 equal -(v_pzz1-3285.48770633926)/(v_delta/v_len0)*0.0001
variable d4 equal -(v_pyz1-${pyz0})/(v_delta/v_len0)*${cfac}
variable d4 equal -(v_pyz1-4163.6482020027)/(v_delta/v_len0)*${cfac}
variable d4 equal -(v_pyz1-4163.6482020027)/(v_delta/v_len0)*0.0001
variable d5 equal -(v_pxz1-${pxz0})/(v_delta/v_len0)*${cfac}
variable d5 equal -(v_pxz1--1780.62902814922)/(v_delta/v_len0)*${cfac}
variable d5 equal -(v_pxz1--1780.62902814922)/(v_delta/v_len0)*0.0001
variable d6 equal -(v_pxy1-${pxy0})/(v_delta/v_len0)*${cfac}
variable d6 equal -(v_pxy1--4835.63272096085)/(v_delta/v_len0)*${cfac}
variable d6 equal -(v_pxy1--4835.63272096085)/(v_delta/v_len0)*0.0001

# displace_atoms all random ${atomjiggle} ${atomjiggle} ${atomjiggle} 87287 units box

# Write restart
unfix 3
write_restart restart_333U-50C-14-vasp.equil
System init for write_restart ...
Generated 6 of 6 mixed pair_coeff terms from arithmetic mixing rule

# uxx Perturbation

variable dir equal 1
include ./input/displace_333U-50C-14-vasp.mod
if "${dir} == 1" then    "variable len0 equal ${lx0}"
variable len0 equal ${lx0}
variable len0 equal 17.3303344083793
if "${dir} == 2" then    "variable len0 equal ${ly0}"
if "${dir} == 3" then    "variable len0 equal ${lz0}"
if "${dir} == 4" then    "variable len0 equal ${lz0}"
if "${dir} == 5" then    "variable len0 equal ${lz0}"
if "${dir} == 6" then    "variable len0 equal ${ly0}"

# Reset box and simulation parameters

clear
OMP_NUM_THREADS environment is not set. Defaulting to 1 thread.
  using 1 OpenMP thread(s) per MPI task
box tilt large

The 'box' command has been removed and will be ignored

read_restart restart_333U-50C-14-vasp.equil
Reading restart file ...
  restart file = 10 Sep 2025, LAMMPS = 10 Sep 2025
  restoring atom style full from restart
  triclinic box = (-0.2352977 -0.13158045 -0.16508863) to (17.095037 12.741089 18.805348) with tilt (-9.0357472 0.46701838 0.20905965)
WARNING: Triclinic box skew is large. LAMMPS will run inefficiently. (src/domain.cpp:221)
  1 by 1 by 1 MPI processor grid
  restoring pair style lj/cut from restart
  restoring bond style harmonic from restart
  restoring angle style hybrid from restart
  restoring dihedral style harmonic from restart
  371 atoms
  396 bonds
  751 angles
  942 dihedrals
Finding 1-2 1-3 1-4 neighbors ...
  special bond factors lj:    0        0        1       
  special bond factors coul:  0        0        1       
     4 = max # of 1-2 neighbors
    10 = max # of 1-3 neighbors
    14 = max # of special neighbors
  special bonds CPU = 0.000 seconds
  read_restart CPU = 0.002 seconds
include ./input/angles_333U-50C-14-vasp.mod
angle_style hybrid fourier cosine/periodic
angle_coeff 1 fourier 32.417871        0.343737        0.374972        0.281246
angle_coeff 2 fourier 83.380072        0.343737        0.374972        0.281246
angle_coeff 3 fourier 221.735285        0.343737        0.374972        0.281246
angle_coeff 4 fourier 114.246973        0.343737        0.374972        0.281246
angle_coeff 5 fourier 157.882480        0.343737        0.374972        0.281246
angle_coeff 6 fourier 58.020602        0.343737        0.374972        0.281246
angle_coeff 7 fourier 90.420412        0.343737        0.374972        0.281246
angle_coeff 8 fourier 75.498766        0.343737        0.374972        0.281246
angle_coeff 9 cosine/periodic 88.853997              -1               3

# Negative deformation

variable delta equal -${up}*${len0}
variable delta equal -0.02*${len0}
variable delta equal -0.02*17.3303344083793
variable deltaxy equal -${up}*xy
variable deltaxy equal -0.02*xy
variable deltaxz equal -${up}*xz
variable deltaxz equal -0.02*xz
variable deltayz equal -${up}*yz
variable deltayz equal -0.02*yz
if "${dir} == 1" then    "change_box all x delta 0 ${delta} xy delta ${deltaxy} xz delta ${deltaxz} remap units box"
change_box all x delta 0 ${delta} xy delta ${deltaxy} xz delta ${deltaxz} remap units box
change_box all x delta 0 -0.346606688167586 xy delta ${deltaxy} xz delta ${deltaxz} remap units box
change_box all x delta 0 -0.346606688167586 xy delta 0.180714944475987 xz delta ${deltaxz} remap units box
change_box all x delta 0 -0.346606688167586 xy delta 0.180714944475987 xz delta -0.00934036752582713 remap units box
Changing box ...
WARNING: Triclinic box skew is large. LAMMPS will run inefficiently. (src/domain.cpp:221)
  triclinic box = (-0.2352977 -0.13158045 -0.16508863) to (16.74843 12.741089 18.805348) with tilt (-9.0357472 0.46701838 0.20905965)
WARNING: Triclinic box skew is large. LAMMPS will run inefficiently. (src/domain.cpp:221)
  triclinic box = (-0.2352977 -0.13158045 -0.16508863) to (16.74843 12.741089 18.805348) with tilt (-8.8550323 0.46701838 0.20905965)
WARNING: Triclinic box skew is large. LAMMPS will run inefficiently. (src/domain.cpp:221)
  triclinic box = (-0.2352977 -0.13158045 -0.16508863) to (16.74843 12.741089 18.805348) with tilt (-8.8550323 0.45767801 0.20905965)
if "${dir} == 2" then    "change_box all y delta 0 ${delta} yz delta ${deltayz} remap units box"
if "${dir} == 3" then    "change_box all z delta 0 ${delta} remap units box"
if "${dir} == 4" then    "change_box all yz delta ${delta} remap units box"
if "${dir} == 5" then    "change_box all xz delta ${delta} remap units box"
if "${dir} == 6" then    "change_box all xy delta ${delta} remap units box"

# Relax atoms positions

minimize ${etol} ${ftol} ${maxiter} ${maxeval}
minimize 0 ${ftol} ${maxiter} ${maxeval}
minimize 0 1e-10 ${maxiter} ${maxeval}
minimize 0 1e-10 100000 ${maxeval}
minimize 0 1e-10 100000 100000
Generated 6 of 6 mixed pair_coeff terms from arithmetic mixing rule
Neighbor list info ...
  update: every = 1 steps, delay = 0 steps, check = yes
  max neighbors/atom: 2000, page size: 100000
  master list distance cutoff = 7
  ghost atom cutoff = 7
  binsize = 3.5, bins = 8 4 6
  1 neighbor lists, perpetual/occasional/extra = 1 0 0
  (1) pair lj/cut, perpetual
      attributes: half, newton on
      pair build: half/bin/newton/tri
      stencil: half/bin/3d/tri
      bin: standard
WARNING: Inconsistent image flags
For more information see https://docs.lammps.org/err0027 (src/domain.cpp:1052)
Per MPI rank memory allocation (min/avg/max) = 19.5 | 19.5 | 19.5 Mbytes
   Step          Temp          E_pair         E_mol          TotEng         Press     
    250325   321.52441     -403.56892      555.81049      506.85075      27815.425    
    250361   321.52441     -443.9696       450.01777      360.65735      4737.9335    
Loop time of 0.0307911 on 1 procs for 36 steps with 371 atoms

100.0% CPU use with 1 MPI tasks x 1 OpenMP threads

Minimization stats:
  Stopping criterion = linesearch alpha is zero
  Energy initial, next-to-last, final = 
      152.241569634533   6.04817290155739   6.04817290155739
  Force two-norm initial, final = 224.97169 17.315923
  Force max component initial, final = 25.128575 2.5829874
  Final line search alpha, max atom move = 4.0033971e-11 1.0340724e-10
  Iterations, force evaluations = 36 126

MPI task timing breakdown:
Section |  min time  |  avg time  |  max time  |%varavg| %total
---------------------------------------------------------------
Pair    | 0.023323   | 0.023323   | 0.023323   |   0.0 | 75.75
Bond    | 0.0061856  | 0.0061856  | 0.0061856  |   0.0 | 20.09
Neigh   | 0          | 0          | 0          |   0.0 |  0.00
Comm    | 0.00071821 | 0.00071821 | 0.00071821 |   0.0 |  2.33
Output  | 0          | 0          | 0          |   0.0 |  0.00
Modify  | 0          | 0          | 0          |   0.0 |  0.00
Other   |            | 0.0005641  |            |       |  1.83

Nlocal:            371 ave         371 max         371 min
Histogram: 1 0 0 0 0 0 0 0 0 0
Nghost:           2317 ave        2317 max        2317 min
Histogram: 1 0 0 0 0 0 0 0 0 0
Neighs:          22551 ave       22551 max       22551 min
Histogram: 1 0 0 0 0 0 0 0 0 0

Total # of neighbors = 22551
Ave neighs/atom = 60.784367
Ave special neighs/atom = 6.1832884
Neighbor list builds = 0
Dangerous builds = 0

# Obtain new stress tensor

variable tmp equal pxx
variable pxx1 equal ${tmp}
variable pxx1 equal 12383.1422282069
variable tmp equal pyy
variable pyy1 equal ${tmp}
variable pyy1 equal 2438.14147746194
variable tmp equal pzz
variable pzz1 equal ${tmp}
variable pzz1 equal -607.48331461062
variable tmp equal pxy
variable pxy1 equal ${tmp}
variable pxy1 equal -4496.35300359549
variable tmp equal pxz
variable pxz1 equal ${tmp}
variable pxz1 equal -1036.35607003762
variable tmp equal pyz
variable pyz1 equal ${tmp}
variable pyz1 equal 4516.62262229066

# Compute elastic constant from pressure tensor

variable C1neg equal ${d1}
variable C1neg equal 43.5746272776358
variable C2neg equal ${d2}
variable C2neg equal -4.949069087297
variable C3neg equal ${d3}
variable C3neg equal -19.4648551047494
variable C4neg equal ${d4}
variable C4neg equal 1.7648721014398
variable C5neg equal ${d5}
variable C5neg equal 3.721364790558
variable C6neg equal ${d6}
variable C6neg equal 1.6963985868268

# Reset box and simulation parameters

clear
OMP_NUM_THREADS environment is not set. Defaulting to 1 thread.
  using 1 OpenMP thread(s) per MPI task
box tilt large

The 'box' command has been removed and will be ignored

read_restart restart_333U-50C-14-vasp.equil
Reading restart file ...
  restart file = 10 Sep 2025, LAMMPS = 10 Sep 2025
  restoring atom style full from restart
  triclinic box = (-0.2352977 -0.13158045 -0.16508863) to (17.095037 12.741089 18.805348) with tilt (-9.0357472 0.46701838 0.20905965)
WARNING: Triclinic box skew is large. LAMMPS will run inefficiently. (src/domain.cpp:221)
  1 by 1 by 1 MPI processor grid
  restoring pair style lj/cut from restart
  restoring bond style harmonic from restart
  restoring angle style hybrid from restart
  restoring dihedral style harmonic from restart
  371 atoms
  396 bonds
  751 angles
  942 dihedrals
Finding 1-2 1-3 1-4 neighbors ...
  special bond factors lj:    0        0        1       
  special bond factors coul:  0        0        1       
     4 = max # of 1-2 neighbors
    10 = max # of 1-3 neighbors
    14 = max # of special neighbors
  special bonds CPU = 0.000 seconds
  read_restart CPU = 0.002 seconds
include ./input/angles_333U-50C-14-vasp.mod
angle_style hybrid fourier cosine/periodic
angle_coeff 1 fourier 32.417871        0.343737        0.374972        0.281246
angle_coeff 2 fourier 83.380072        0.343737        0.374972        0.281246
angle_coeff 3 fourier 221.735285        0.343737        0.374972        0.281246
angle_coeff 4 fourier 114.246973        0.343737        0.374972        0.281246
angle_coeff 5 fourier 157.882480        0.343737        0.374972        0.281246
angle_coeff 6 fourier 58.020602        0.343737        0.374972        0.281246
angle_coeff 7 fourier 90.420412        0.343737        0.374972        0.281246
angle_coeff 8 fourier 75.498766        0.343737        0.374972        0.281246
angle_coeff 9 cosine/periodic 88.853997              -1               3

# Positive deformation

variable delta equal ${up}*${len0}
variable delta equal 0.02*${len0}
variable delta equal 0.02*17.3303344083793
variable deltaxy equal ${up}*xy
variable deltaxy equal 0.02*xy
variable deltaxz equal ${up}*xz
variable deltaxz equal 0.02*xz
variable deltayz equal ${up}*yz
variable deltayz equal 0.02*yz
if "${dir} == 1" then    "change_box all x delta 0 ${delta} xy delta ${deltaxy} xz delta ${deltaxz} remap units box"
change_box all x delta 0 ${delta} xy delta ${deltaxy} xz delta ${deltaxz} remap units box
change_box all x delta 0 0.346606688167586 xy delta ${deltaxy} xz delta ${deltaxz} remap units box
change_box all x delta 0 0.346606688167586 xy delta -0.180714944475987 xz delta ${deltaxz} remap units box
change_box all x delta 0 0.346606688167586 xy delta -0.180714944475987 xz delta 0.00934036752582713 remap units box
Changing box ...
WARNING: Triclinic box skew is large. LAMMPS will run inefficiently. (src/domain.cpp:221)
  triclinic box = (-0.2352977 -0.13158045 -0.16508863) to (17.441643 12.741089 18.805348) with tilt (-9.0357472 0.46701838 0.20905965)
WARNING: Triclinic box skew is large. LAMMPS will run inefficiently. (src/domain.cpp:221)
  triclinic box = (-0.2352977 -0.13158045 -0.16508863) to (17.441643 12.741089 18.805348) with tilt (-9.2164622 0.46701838 0.20905965)
WARNING: Triclinic box skew is large. LAMMPS will run inefficiently. (src/domain.cpp:221)
  triclinic box = (-0.2352977 -0.13158045 -0.16508863) to (17.441643 12.741089 18.805348) with tilt (-9.2164622 0.47635874 0.20905965)
if "${dir} == 2" then    "change_box all y delta 0 ${delta} yz delta ${deltayz} remap units box"
if "${dir} == 3" then    "change_box all z delta 0 ${delta} remap units box"
if "${dir} == 4" then    "change_box all yz delta ${delta} remap units box"
if "${dir} == 5" then    "change_box all xz delta ${delta} remap units box"
if "${dir} == 6" then    "change_box all xy delta ${delta} remap units box"

# Relax atoms positions

minimize ${etol} ${ftol} ${maxiter} ${maxeval}
minimize 0 ${ftol} ${maxiter} ${maxeval}
minimize 0 1e-10 ${maxiter} ${maxeval}
minimize 0 1e-10 100000 ${maxeval}
minimize 0 1e-10 100000 100000
Generated 6 of 6 mixed pair_coeff terms from arithmetic mixing rule
Neighbor list info ...
  update: every = 1 steps, delay = 0 steps, check = yes
  max neighbors/atom: 2000, page size: 100000
  master list distance cutoff = 7
  ghost atom cutoff = 7
  binsize = 3.5, bins = 8 4 6
  1 neighbor lists, perpetual/occasional/extra = 1 0 0
  (1) pair lj/cut, perpetual
      attributes: half, newton on
      pair build: half/bin/newton/tri
      stencil: half/bin/3d/tri
      bin: standard
WARNING: Inconsistent image flags
For more information see https://docs.lammps.org/err0027 (src/domain.cpp:1052)
Per MPI rank memory allocation (min/avg/max) = 19.5 | 19.5 | 19.5 Mbytes
   Step          Temp          E_pair         E_mol          TotEng         Press     
    250325   321.52441     -436.76208      590.70685      508.55395     -20065.859    
    250365   321.52441     -458.566        465.14161      361.18479     -5852.2823    
Loop time of 0.0322427 on 1 procs for 40 steps with 371 atoms

100.0% CPU use with 1 MPI tasks x 1 OpenMP threads

Minimization stats:
  Stopping criterion = linesearch alpha is zero
  Energy initial, next-to-last, final = 
      153.944767300009   6.57561468107582   6.57561468107582
  Force two-norm initial, final = 217.1796 19.200184
  Force max component initial, final = 23.204254 2.6381952
  Final line search alpha, max atom move = 3.0269254e-11 7.98562e-11
  Iterations, force evaluations = 40 135

MPI task timing breakdown:
Section |  min time  |  avg time  |  max time  |%varavg| %total
---------------------------------------------------------------
Pair    | 0.024145   | 0.024145   | 0.024145   |   0.0 | 74.89
Bond    | 0.0067377  | 0.0067377  | 0.0067377  |   0.0 | 20.90
Neigh   | 0          | 0          | 0          |   0.0 |  0.00
Comm    | 0.00075535 | 0.00075535 | 0.00075535 |   0.0 |  2.34
Output  | 0          | 0          | 0          |   0.0 |  0.00
Modify  | 0          | 0          | 0          |   0.0 |  0.00
Other   |            | 0.0006044  |            |       |  1.87

Nlocal:            371 ave         371 max         371 min
Histogram: 1 0 0 0 0 0 0 0 0 0
Nghost:           2279 ave        2279 max        2279 min
Histogram: 1 0 0 0 0 0 0 0 0 0
Neighs:          21623 ave       21623 max       21623 min
Histogram: 1 0 0 0 0 0 0 0 0 0

Total # of neighbors = 21623
Ave neighs/atom = 58.283019
Ave special neighs/atom = 6.1832884
Neighbor list builds = 0
Dangerous builds = 0

# Obtain new stress tensor

variable tmp equal pe
variable e1 equal ${tmp}
variable e1 equal 6.57561468107582
variable tmp equal press
variable p1 equal ${tmp}
variable p1 equal -5852.28230681199
variable tmp equal pxx
variable pxx1 equal ${tmp}
variable pxx1 equal -5246.08764773137
variable tmp equal pyy
variable pyy1 equal ${tmp}
variable pyy1 equal -3525.97385351765
variable tmp equal pzz
variable pzz1 equal ${tmp}
variable pzz1 equal -8784.78541918693
variable tmp equal pxy
variable pxy1 equal ${tmp}
variable pxy1 equal -4107.7763958593
variable tmp equal pxz
variable pxz1 equal ${tmp}
variable pxz1 equal -1718.40979067769
variable tmp equal pyz
variable pyz1 equal ${tmp}
variable pyz1 equal 5159.51673205198

# Compute elastic constant from pressure tensor

variable C1pos equal ${d1}
variable C1pos equal 44.5715221020555
variable C2pos equal ${d2}
variable C2pos equal 34.769645742195
variable C3pos equal ${d3}
variable C3pos equal 60.351365627631
variable C4pos equal ${d4}
variable C4pos equal -4.9793426502464
variable C5pos equal ${d5}
variable C5pos equal -0.31109618735765
variable C6pos equal ${d6}
variable C6pos equal -3.63928162550775

# Combine positive and negative

variable C1${dir} equal 0.5*(${C1neg}+${C1pos})
variable C11 equal 0.5*(${C1neg}+${C1pos})
variable C11 equal 0.5*(43.5746272776358+${C1pos})
variable C11 equal 0.5*(43.5746272776358+44.5715221020555)
variable C2${dir} equal 0.5*(${C2neg}+${C2pos})
variable C21 equal 0.5*(${C2neg}+${C2pos})
variable C21 equal 0.5*(-4.949069087297+${C2pos})
variable C21 equal 0.5*(-4.949069087297+34.769645742195)
variable C3${dir} equal 0.5*(${C3neg}+${C3pos})
variable C31 equal 0.5*(${C3neg}+${C3pos})
variable C31 equal 0.5*(-19.4648551047494+${C3pos})
variable C31 equal 0.5*(-19.4648551047494+60.351365627631)
variable C4${dir} equal 0.5*(${C4neg}+${C4pos})
variable C41 equal 0.5*(${C4neg}+${C4pos})
variable C41 equal 0.5*(1.7648721014398+${C4pos})
variable C41 equal 0.5*(1.7648721014398+-4.9793426502464)
variable C5${dir} equal 0.5*(${C5neg}+${C5pos})
variable C51 equal 0.5*(${C5neg}+${C5pos})
variable C51 equal 0.5*(3.721364790558+${C5pos})
variable C51 equal 0.5*(3.721364790558+-0.31109618735765)
variable C6${dir} equal 0.5*(${C6neg}+${C6pos})
variable C61 equal 0.5*(${C6neg}+${C6pos})
variable C61 equal 0.5*(1.6963985868268+${C6pos})
variable C61 equal 0.5*(1.6963985868268+-3.63928162550775)

# Delete dir to make sure it is not reused

variable dir delete

# uyy Perturbation

variable dir equal 2
include ./input/displace_333U-50C-14-vasp.mod
if "${dir} == 1" then    "variable len0 equal ${lx0}"
if "${dir} == 2" then    "variable len0 equal ${ly0}"
variable len0 equal ${ly0}
variable len0 equal 12.8726698961482
if "${dir} == 3" then    "variable len0 equal ${lz0}"
if "${dir} == 4" then    "variable len0 equal ${lz0}"
if "${dir} == 5" then    "variable len0 equal ${lz0}"
if "${dir} == 6" then    "variable len0 equal ${ly0}"

# Reset box and simulation parameters

clear
OMP_NUM_THREADS environment is not set. Defaulting to 1 thread.
  using 1 OpenMP thread(s) per MPI task
box tilt large

The 'box' command has been removed and will be ignored

read_restart restart_333U-50C-14-vasp.equil
Reading restart file ...
  restart file = 10 Sep 2025, LAMMPS = 10 Sep 2025
  restoring atom style full from restart
  triclinic box = (-0.2352977 -0.13158045 -0.16508863) to (17.095037 12.741089 18.805348) with tilt (-9.0357472 0.46701838 0.20905965)
WARNING: Triclinic box skew is large. LAMMPS will run inefficiently. (src/domain.cpp:221)
  1 by 1 by 1 MPI processor grid
  restoring pair style lj/cut from restart
  restoring bond style harmonic from restart
  restoring angle style hybrid from restart
  restoring dihedral style harmonic from restart
  371 atoms
  396 bonds
  751 angles
  942 dihedrals
Finding 1-2 1-3 1-4 neighbors ...
  special bond factors lj:    0        0        1       
  special bond factors coul:  0        0        1       
     4 = max # of 1-2 neighbors
    10 = max # of 1-3 neighbors
    14 = max # of special neighbors
  special bonds CPU = 0.000 seconds
  read_restart CPU = 0.001 seconds
include ./input/angles_333U-50C-14-vasp.mod
angle_style hybrid fourier cosine/periodic
angle_coeff 1 fourier 32.417871        0.343737        0.374972        0.281246
angle_coeff 2 fourier 83.380072        0.343737        0.374972        0.281246
angle_coeff 3 fourier 221.735285        0.343737        0.374972        0.281246
angle_coeff 4 fourier 114.246973        0.343737        0.374972        0.281246
angle_coeff 5 fourier 157.882480        0.343737        0.374972        0.281246
angle_coeff 6 fourier 58.020602        0.343737        0.374972        0.281246
angle_coeff 7 fourier 90.420412        0.343737        0.374972        0.281246
angle_coeff 8 fourier 75.498766        0.343737        0.374972        0.281246
angle_coeff 9 cosine/periodic 88.853997              -1               3

# Negative deformation

variable delta equal -${up}*${len0}
variable delta equal -0.02*${len0}
variable delta equal -0.02*12.8726698961482
variable deltaxy equal -${up}*xy
variable deltaxy equal -0.02*xy
variable deltaxz equal -${up}*xz
variable deltaxz equal -0.02*xz
variable deltayz equal -${up}*yz
variable deltayz equal -0.02*yz
if "${dir} == 1" then    "change_box all x delta 0 ${delta} xy delta ${deltaxy} xz delta ${deltaxz} remap units box"
if "${dir} == 2" then    "change_box all y delta 0 ${delta} yz delta ${deltayz} remap units box"
change_box all y delta 0 ${delta} yz delta ${deltayz} remap units box
change_box all y delta 0 -0.257453397922964 yz delta ${deltayz} remap units box
change_box all y delta 0 -0.257453397922964 yz delta -0.0041811929602367 remap units box
Changing box ...
WARNING: Triclinic box skew is large. LAMMPS will run inefficiently. (src/domain.cpp:221)
  triclinic box = (-0.2352977 -0.13158045 -0.16508863) to (17.095037 12.483636 18.805348) with tilt (-9.0357472 0.46701838 0.20905965)
WARNING: Triclinic box skew is large. LAMMPS will run inefficiently. (src/domain.cpp:221)
  triclinic box = (-0.2352977 -0.13158045 -0.16508863) to (17.095037 12.483636 18.805348) with tilt (-9.0357472 0.46701838 0.20487846)
if "${dir} == 3" then    "change_box all z delta 0 ${delta} remap units box"
if "${dir} == 4" then    "change_box all yz delta ${delta} remap units box"
if "${dir} == 5" then    "change_box all xz delta ${delta} remap units box"
if "${dir} == 6" then    "change_box all xy delta ${delta} remap units box"

# Relax atoms positions

minimize ${etol} ${ftol} ${maxiter} ${maxeval}
minimize 0 ${ftol} ${maxiter} ${maxeval}
minimize 0 1e-10 ${maxiter} ${maxeval}
minimize 0 1e-10 100000 ${maxeval}
minimize 0 1e-10 100000 100000
Generated 6 of 6 mixed pair_coeff terms from arithmetic mixing rule
Neighbor list info ...
  update: every = 1 steps, delay = 0 steps, check = yes
  max neighbors/atom: 2000, page size: 100000
  master list distance cutoff = 7
  ghost atom cutoff = 7
  binsize = 3.5, bins = 8 4 6
  1 neighbor lists, perpetual/occasional/extra = 1 0 0
  (1) pair lj/cut, perpetual
      attributes: half, newton on
      pair build: half/bin/newton/tri
      stencil: half/bin/3d/tri
      bin: standard
WARNING: Inconsistent image flags
For more information see https://docs.lammps.org/err0027 (src/domain.cpp:1052)
Per MPI rank memory allocation (min/avg/max) = 19.5 | 19.5 | 19.5 Mbytes
   Step          Temp          E_pair         E_mol          TotEng         Press     
    250325   321.52441     -404.01686      554.30618      504.8985       27511.099    
    250362   321.52441     -443.41         445.87698      357.07616      4672.0705    
Loop time of 0.0360173 on 1 procs for 37 steps with 371 atoms

100.0% CPU use with 1 MPI tasks x 1 OpenMP threads

Minimization stats:
  Stopping criterion = linesearch alpha is zero
  Energy initial, next-to-last, final = 
      150.289325234265    2.4669771153612    2.4669771153612
  Force two-norm initial, final = 225.36888 14.641191
  Force max component initial, final = 23.77805 1.7139072
  Final line search alpha, max atom move = 5.4339147e-11 9.3132257e-11
  Iterations, force evaluations = 37 145

MPI task timing breakdown:
Section |  min time  |  avg time  |  max time  |%varavg| %total
---------------------------------------------------------------
Pair    | 0.027255   | 0.027255   | 0.027255   |   0.0 | 75.67
Bond    | 0.0073405  | 0.0073405  | 0.0073405  |   0.0 | 20.38
Neigh   | 0          | 0          | 0          |   0.0 |  0.00
Comm    | 0.00082296 | 0.00082296 | 0.00082296 |   0.0 |  2.28
Output  | 0          | 0          | 0          |   0.0 |  0.00
Modify  | 0          | 0          | 0          |   0.0 |  0.00
Other   |            | 0.0005991  |            |       |  1.66

Nlocal:            371 ave         371 max         371 min
Histogram: 1 0 0 0 0 0 0 0 0 0
Nghost:           2333 ave        2333 max        2333 min
Histogram: 1 0 0 0 0 0 0 0 0 0
Neighs:          22556 ave       22556 max       22556 min
Histogram: 1 0 0 0 0 0 0 0 0 0

Total # of neighbors = 22556
Ave neighs/atom = 60.797844
Ave special neighs/atom = 6.1832884
Neighbor list builds = 0
Dangerous builds = 0

# Obtain new stress tensor

variable tmp equal pxx
variable pxx1 equal ${tmp}
variable pxx1 equal 6521.49589473986
variable tmp equal pyy
variable pyy1 equal ${tmp}
variable pyy1 equal 8663.18723899711
variable tmp equal pzz
variable pzz1 equal ${tmp}
variable pzz1 equal -1168.4714946895
variable tmp equal pxy
variable pxy1 equal ${tmp}
variable pxy1 equal -3980.33872191094
variable tmp equal pxz
variable pxz1 equal ${tmp}
variable pxz1 equal -1168.25498626909
variable tmp equal pyz
variable pyz1 equal ${tmp}
variable pyz1 equal 4737.27902025377

# Compute elastic constant from pressure tensor

variable C1neg equal ${d1}
variable C1neg equal 14.2663956103007
variable C2neg equal ${d2}
variable C2neg equal 26.1761597203789
variable C3neg equal ${d3}
variable C3neg equal -22.2697960051438
variable C4neg equal ${d4}
variable C4neg equal 2.86815409125535
variable C5neg equal ${d5}
variable C5neg equal 3.06187020940065
variable C6neg equal ${d6}
variable C6neg equal 4.27646999524955

# Reset box and simulation parameters

clear
OMP_NUM_THREADS environment is not set. Defaulting to 1 thread.
  using 1 OpenMP thread(s) per MPI task
box tilt large

The 'box' command has been removed and will be ignored

read_restart restart_333U-50C-14-vasp.equil
Reading restart file ...
  restart file = 10 Sep 2025, LAMMPS = 10 Sep 2025
  restoring atom style full from restart
  triclinic box = (-0.2352977 -0.13158045 -0.16508863) to (17.095037 12.741089 18.805348) with tilt (-9.0357472 0.46701838 0.20905965)
WARNING: Triclinic box skew is large. LAMMPS will run inefficiently. (src/domain.cpp:221)
  1 by 1 by 1 MPI processor grid
  restoring pair style lj/cut from restart
  restoring bond style harmonic from restart
  restoring angle style hybrid from restart
  restoring dihedral style harmonic from restart
  371 atoms
  396 bonds
  751 angles
  942 dihedrals
Finding 1-2 1-3 1-4 neighbors ...
  special bond factors lj:    0        0        1       
  special bond factors coul:  0        0        1       
     4 = max # of 1-2 neighbors
    10 = max # of 1-3 neighbors
    14 = max # of special neighbors
  special bonds CPU = 0.000 seconds
  read_restart CPU = 0.001 seconds
include ./input/angles_333U-50C-14-vasp.mod
angle_style hybrid fourier cosine/periodic
angle_coeff 1 fourier 32.417871        0.343737        0.374972        0.281246
angle_coeff 2 fourier 83.380072        0.343737        0.374972        0.281246
angle_coeff 3 fourier 221.735285        0.343737        0.374972        0.281246
angle_coeff 4 fourier 114.246973        0.343737        0.374972        0.281246
angle_coeff 5 fourier 157.882480        0.343737        0.374972        0.281246
angle_coeff 6 fourier 58.020602        0.343737        0.374972        0.281246
angle_coeff 7 fourier 90.420412        0.343737        0.374972        0.281246
angle_coeff 8 fourier 75.498766        0.343737        0.374972        0.281246
angle_coeff 9 cosine/periodic 88.853997              -1               3

# Positive deformation

variable delta equal ${up}*${len0}
variable delta equal 0.02*${len0}
variable delta equal 0.02*12.8726698961482
variable deltaxy equal ${up}*xy
variable deltaxy equal 0.02*xy
variable deltaxz equal ${up}*xz
variable deltaxz equal 0.02*xz
variable deltayz equal ${up}*yz
variable deltayz equal 0.02*yz
if "${dir} == 1" then    "change_box all x delta 0 ${delta} xy delta ${deltaxy} xz delta ${deltaxz} remap units box"
if "${dir} == 2" then    "change_box all y delta 0 ${delta} yz delta ${deltayz} remap units box"
change_box all y delta 0 ${delta} yz delta ${deltayz} remap units box
change_box all y delta 0 0.257453397922964 yz delta ${deltayz} remap units box
change_box all y delta 0 0.257453397922964 yz delta 0.0041811929602367 remap units box
Changing box ...
WARNING: Triclinic box skew is large. LAMMPS will run inefficiently. (src/domain.cpp:221)
  triclinic box = (-0.2352977 -0.13158045 -0.16508863) to (17.095037 12.998543 18.805348) with tilt (-9.0357472 0.46701838 0.20905965)
WARNING: Triclinic box skew is large. LAMMPS will run inefficiently. (src/domain.cpp:221)
  triclinic box = (-0.2352977 -0.13158045 -0.16508863) to (17.095037 12.998543 18.805348) with tilt (-9.0357472 0.46701838 0.21324084)
if "${dir} == 3" then    "change_box all z delta 0 ${delta} remap units box"
if "${dir} == 4" then    "change_box all yz delta ${delta} remap units box"
if "${dir} == 5" then    "change_box all xz delta ${delta} remap units box"
if "${dir} == 6" then    "change_box all xy delta ${delta} remap units box"

# Relax atoms positions

minimize ${etol} ${ftol} ${maxiter} ${maxeval}
minimize 0 ${ftol} ${maxiter} ${maxeval}
minimize 0 1e-10 ${maxiter} ${maxeval}
minimize 0 1e-10 100000 ${maxeval}
minimize 0 1e-10 100000 100000
Generated 6 of 6 mixed pair_coeff terms from arithmetic mixing rule
Neighbor list info ...
  update: every = 1 steps, delay = 0 steps, check = yes
  max neighbors/atom: 2000, page size: 100000
  master list distance cutoff = 7
  ghost atom cutoff = 7
  binsize = 3.5, bins = 8 4 6
  1 neighbor lists, perpetual/occasional/extra = 1 0 0
  (1) pair lj/cut, perpetual
      attributes: half, newton on
      pair build: half/bin/newton/tri
      stencil: half/bin/3d/tri
      bin: standard
WARNING: Inconsistent image flags
For more information see https://docs.lammps.org/err0027 (src/domain.cpp:1052)
Per MPI rank memory allocation (min/avg/max) = 19.5 | 19.5 | 19.5 Mbytes
   Step          Temp          E_pair         E_mol          TotEng         Press     
    250325   321.52441     -436.61213      590.64961      508.64667     -19761.907    
    250380   321.52441     -456.06533      464.00372      362.54756     -5181.1505    
Loop time of 0.0398005 on 1 procs for 55 steps with 371 atoms

100.0% CPU use with 1 MPI tasks x 1 OpenMP threads

Minimization stats:
  Stopping criterion = linesearch alpha is zero
  Energy initial, next-to-last, final = 
      154.037487613031   7.93838678940483   7.93838678940483
  Force two-norm initial, final = 219.99286 12.695572
  Force max component initial, final = 25.508358 1.6179161
  Final line search alpha, max atom move = 4.8701364e-11 7.879472e-11
  Iterations, force evaluations = 55 165

MPI task timing breakdown:
Section |  min time  |  avg time  |  max time  |%varavg| %total
---------------------------------------------------------------
Pair    | 0.02974    | 0.02974    | 0.02974    |   0.0 | 74.72
Bond    | 0.0084183  | 0.0084183  | 0.0084183  |   0.0 | 21.15
Neigh   | 0          | 0          | 0          |   0.0 |  0.00
Comm    | 0.00089989 | 0.00089989 | 0.00089989 |   0.0 |  2.26
Output  | 0          | 0          | 0          |   0.0 |  0.00
Modify  | 0          | 0          | 0          |   0.0 |  0.00
Other   |            | 0.000742   |            |       |  1.86

Nlocal:            371 ave         371 max         371 min
Histogram: 1 0 0 0 0 0 0 0 0 0
Nghost:           2253 ave        2253 max        2253 min
Histogram: 1 0 0 0 0 0 0 0 0 0
Neighs:          21610 ave       21610 max       21610 min
Histogram: 1 0 0 0 0 0 0 0 0 0

Total # of neighbors = 21610
Ave neighs/atom = 58.247978
Ave special neighs/atom = 6.1832884
Neighbor list builds = 0
Dangerous builds = 0

# Obtain new stress tensor

variable tmp equal pe
variable e1 equal ${tmp}
variable e1 equal 7.93838678940483
variable tmp equal press
variable p1 equal ${tmp}
variable p1 equal -5181.15050226138
variable tmp equal pxx
variable pxx1 equal ${tmp}
variable pxx1 equal 390.595379977229
variable tmp equal pyy
variable pyy1 equal ${tmp}
variable pyy1 equal -8221.66567123916
variable tmp equal pzz
variable pzz1 equal ${tmp}
variable pzz1 equal -7712.3812155222
variable tmp equal pxy
variable pxy1 equal ${tmp}
variable pxy1 equal -4542.49413223944
variable tmp equal pxz
variable pxz1 equal ${tmp}
variable pxz1 equal -2056.19663974695
variable tmp equal pyz
variable pyz1 equal ${tmp}
variable pyz1 equal 4790.48679034589

# Compute elastic constant from pressure tensor

variable C1pos equal ${d1}
variable C1pos equal 16.3881069635125
variable C2pos equal ${d2}
variable C2pos equal 58.2481048308025
variable C3pos equal ${d3}
variable C3pos equal 54.9893446093073
variable C4pos equal ${d4}
variable C4pos equal -3.13419294171595
variable C5pos equal ${d5}
variable C5pos equal 1.37783805798865
variable C6pos equal ${d6}
variable C6pos equal -1.46569294360705

# Combine positive and negative

variable C1${dir} equal 0.5*(${C1neg}+${C1pos})
variable C12 equal 0.5*(${C1neg}+${C1pos})
variable C12 equal 0.5*(14.2663956103007+${C1pos})
variable C12 equal 0.5*(14.2663956103007+16.3881069635125)
variable C2${dir} equal 0.5*(${C2neg}+${C2pos})
variable C22 equal 0.5*(${C2neg}+${C2pos})
variable C22 equal 0.5*(26.1761597203789+${C2pos})
variable C22 equal 0.5*(26.1761597203789+58.2481048308025)
variable C3${dir} equal 0.5*(${C3neg}+${C3pos})
variable C32 equal 0.5*(${C3neg}+${C3pos})
variable C32 equal 0.5*(-22.2697960051438+${C3pos})
variable C32 equal 0.5*(-22.2697960051438+54.9893446093073)
variable C4${dir} equal 0.5*(${C4neg}+${C4pos})
variable C42 equal 0.5*(${C4neg}+${C4pos})
variable C42 equal 0.5*(2.86815409125535+${C4pos})
variable C42 equal 0.5*(2.86815409125535+-3.13419294171595)
variable C5${dir} equal 0.5*(${C5neg}+${C5pos})
variable C52 equal 0.5*(${C5neg}+${C5pos})
variable C52 equal 0.5*(3.06187020940065+${C5pos})
variable C52 equal 0.5*(3.06187020940065+1.37783805798865)
variable C6${dir} equal 0.5*(${C6neg}+${C6pos})
variable C62 equal 0.5*(${C6neg}+${C6pos})
variable C62 equal 0.5*(4.27646999524955+${C6pos})
variable C62 equal 0.5*(4.27646999524955+-1.46569294360705)

# Delete dir to make sure it is not reused

variable dir delete

# uzz Perturbation

variable dir equal 3
include ./input/displace_333U-50C-14-vasp.mod
if "${dir} == 1" then    "variable len0 equal ${lx0}"
if "${dir} == 2" then    "variable len0 equal ${ly0}"
if "${dir} == 3" then    "variable len0 equal ${lz0}"
variable len0 equal ${lz0}
variable len0 equal 18.9704362523268
if "${dir} == 4" then    "variable len0 equal ${lz0}"
if "${dir} == 5" then    "variable len0 equal ${lz0}"
if "${dir} == 6" then    "variable len0 equal ${ly0}"

# Reset box and simulation parameters

clear
OMP_NUM_THREADS environment is not set. Defaulting to 1 thread.
  using 1 OpenMP thread(s) per MPI task
box tilt large

The 'box' command has been removed and will be ignored

read_restart restart_333U-50C-14-vasp.equil
Reading restart file ...
  restart file = 10 Sep 2025, LAMMPS = 10 Sep 2025
  restoring atom style full from restart
  triclinic box = (-0.2352977 -0.13158045 -0.16508863) to (17.095037 12.741089 18.805348) with tilt (-9.0357472 0.46701838 0.20905965)
WARNING: Triclinic box skew is large. LAMMPS will run inefficiently. (src/domain.cpp:221)
  1 by 1 by 1 MPI processor grid
  restoring pair style lj/cut from restart
  restoring bond style harmonic from restart
  restoring angle style hybrid from restart
  restoring dihedral style harmonic from restart
  371 atoms
  396 bonds
  751 angles
  942 dihedrals
Finding 1-2 1-3 1-4 neighbors ...
  special bond factors lj:    0        0        1       
  special bond factors coul:  0        0        1       
     4 = max # of 1-2 neighbors
    10 = max # of 1-3 neighbors
    14 = max # of special neighbors
  special bonds CPU = 0.000 seconds
  read_restart CPU = 0.001 seconds
include ./input/angles_333U-50C-14-vasp.mod
angle_style hybrid fourier cosine/periodic
angle_coeff 1 fourier 32.417871        0.343737        0.374972        0.281246
angle_coeff 2 fourier 83.380072        0.343737        0.374972        0.281246
angle_coeff 3 fourier 221.735285        0.343737        0.374972        0.281246
angle_coeff 4 fourier 114.246973        0.343737        0.374972        0.281246
angle_coeff 5 fourier 157.882480        0.343737        0.374972        0.281246
angle_coeff 6 fourier 58.020602        0.343737        0.374972        0.281246
angle_coeff 7 fourier 90.420412        0.343737        0.374972        0.281246
angle_coeff 8 fourier 75.498766        0.343737        0.374972        0.281246
angle_coeff 9 cosine/periodic 88.853997              -1               3

# Negative deformation

variable delta equal -${up}*${len0}
variable delta equal -0.02*${len0}
variable delta equal -0.02*18.9704362523268
variable deltaxy equal -${up}*xy
variable deltaxy equal -0.02*xy
variable deltaxz equal -${up}*xz
variable deltaxz equal -0.02*xz
variable deltayz equal -${up}*yz
variable deltayz equal -0.02*yz
if "${dir} == 1" then    "change_box all x delta 0 ${delta} xy delta ${deltaxy} xz delta ${deltaxz} remap units box"
if "${dir} == 2" then    "change_box all y delta 0 ${delta} yz delta ${deltayz} remap units box"
if "${dir} == 3" then    "change_box all z delta 0 ${delta} remap units box"
change_box all z delta 0 ${delta} remap units box
change_box all z delta 0 -0.379408725046536 remap units box
Changing box ...
WARNING: Triclinic box skew is large. LAMMPS will run inefficiently. (src/domain.cpp:221)
  triclinic box = (-0.2352977 -0.13158045 -0.16508863) to (17.095037 12.741089 18.425939) with tilt (-9.0357472 0.46701838 0.20905965)
if "${dir} == 4" then    "change_box all yz delta ${delta} remap units box"
if "${dir} == 5" then    "change_box all xz delta ${delta} remap units box"
if "${dir} == 6" then    "change_box all xy delta ${delta} remap units box"

# Relax atoms positions

minimize ${etol} ${ftol} ${maxiter} ${maxeval}
minimize 0 ${ftol} ${maxiter} ${maxeval}
minimize 0 1e-10 ${maxiter} ${maxeval}
minimize 0 1e-10 100000 ${maxeval}
minimize 0 1e-10 100000 100000
Generated 6 of 6 mixed pair_coeff terms from arithmetic mixing rule
Neighbor list info ...
  update: every = 1 steps, delay = 0 steps, check = yes
  max neighbors/atom: 2000, page size: 100000
  master list distance cutoff = 7
  ghost atom cutoff = 7
  binsize = 3.5, bins = 8 4 6
  1 neighbor lists, perpetual/occasional/extra = 1 0 0
  (1) pair lj/cut, perpetual
      attributes: half, newton on
      pair build: half/bin/newton/tri
      stencil: half/bin/3d/tri
      bin: standard
WARNING: Inconsistent image flags
For more information see https://docs.lammps.org/err0027 (src/domain.cpp:1052)
Per MPI rank memory allocation (min/avg/max) = 19.52 | 19.52 | 19.52 Mbytes
   Step          Temp          E_pair         E_mol          TotEng         Press     
    250325   321.52441     -398.86889      553.94966      509.68994      29561.04     
    250379   321.52441     -438.2106       436.77922      353.17781      6090.8507    
Loop time of 0.117957 on 1 procs for 54 steps with 371 atoms

100.0% CPU use with 1 MPI tasks x 1 OpenMP threads

Minimization stats:
  Stopping criterion = linesearch alpha is zero
  Energy initial, next-to-last, final = 
      155.080764142475  -1.43137255234029  -1.43137255234029
  Force two-norm initial, final = 237.50394 14.713405
  Force max component initial, final = 25.762955 2.4006413
  Final line search alpha, max atom move = 3.879474e-11 9.3132257e-11
  Iterations, force evaluations = 54 489

MPI task timing breakdown:
Section |  min time  |  avg time  |  max time  |%varavg| %total
---------------------------------------------------------------
Pair    | 0.089308   | 0.089308   | 0.089308   |   0.0 | 75.71
Bond    | 0.024092   | 0.024092   | 0.024092   |   0.0 | 20.42
Neigh   | 0          | 0          | 0          |   0.0 |  0.00
Comm    | 0.0028639  | 0.0028639  | 0.0028639  |   0.0 |  2.43
Output  | 0          | 0          | 0          |   0.0 |  0.00
Modify  | 0          | 0          | 0          |   0.0 |  0.00
Other   |            | 0.001692   |            |       |  1.43

Nlocal:            371 ave         371 max         371 min
Histogram: 1 0 0 0 0 0 0 0 0 0
Nghost:           2345 ave        2345 max        2345 min
Histogram: 1 0 0 0 0 0 0 0 0 0
Neighs:          22539 ave       22539 max       22539 min
Histogram: 1 0 0 0 0 0 0 0 0 0

Total # of neighbors = 22539
Ave neighs/atom = 60.752022
Ave special neighs/atom = 6.1832884
Neighbor list builds = 0
Dangerous builds = 0

# Obtain new stress tensor

variable tmp equal pxx
variable pxx1 equal ${tmp}
variable pxx1 equal 7508.62914871479
variable tmp equal pyy
variable pyy1 equal ${tmp}
variable pyy1 equal 3196.08137069039
variable tmp equal pzz
variable pzz1 equal ${tmp}
variable pzz1 equal 7567.84159913936
variable tmp equal pxy
variable pxy1 equal ${tmp}
variable pxy1 equal -3837.98051114531
variable tmp equal pxz
variable pxz1 equal ${tmp}
variable pxz1 equal -1313.7937821631
variable tmp equal pyz
variable pyz1 equal ${tmp}
variable pyz1 equal 5461.87062357899

# Compute elastic constant from pressure tensor

variable C1neg equal ${d1}
variable C1neg equal 19.2020618801753
variable C2neg equal ${d2}
variable C2neg equal -1.15936962115475
variable C3neg equal ${d3}
variable C3neg equal 21.4117694640005
variable C4neg equal ${d4}
variable C4neg equal 6.49111210788145
variable C5neg equal ${d5}
variable C5neg equal 2.3341762299306
variable C6neg equal ${d6}
variable C6neg equal 4.9882610490777

# Reset box and simulation parameters

clear
OMP_NUM_THREADS environment is not set. Defaulting to 1 thread.
  using 1 OpenMP thread(s) per MPI task
box tilt large

The 'box' command has been removed and will be ignored

read_restart restart_333U-50C-14-vasp.equil
Reading restart file ...
  restart file = 10 Sep 2025, LAMMPS = 10 Sep 2025
  restoring atom style full from restart
  triclinic box = (-0.2352977 -0.13158045 -0.16508863) to (17.095037 12.741089 18.805348) with tilt (-9.0357472 0.46701838 0.20905965)
WARNING: Triclinic box skew is large. LAMMPS will run inefficiently. (src/domain.cpp:221)
  1 by 1 by 1 MPI processor grid
  restoring pair style lj/cut from restart
  restoring bond style harmonic from restart
  restoring angle style hybrid from restart
  restoring dihedral style harmonic from restart
  371 atoms
  396 bonds
  751 angles
  942 dihedrals
Finding 1-2 1-3 1-4 neighbors ...
  special bond factors lj:    0        0        1       
  special bond factors coul:  0        0        1       
     4 = max # of 1-2 neighbors
    10 = max # of 1-3 neighbors
    14 = max # of special neighbors
  special bonds CPU = 0.000 seconds
  read_restart CPU = 0.001 seconds
include ./input/angles_333U-50C-14-vasp.mod
angle_style hybrid fourier cosine/periodic
angle_coeff 1 fourier 32.417871        0.343737        0.374972        0.281246
angle_coeff 2 fourier 83.380072        0.343737        0.374972        0.281246
angle_coeff 3 fourier 221.735285        0.343737        0.374972        0.281246
angle_coeff 4 fourier 114.246973        0.343737        0.374972        0.281246
angle_coeff 5 fourier 157.882480        0.343737        0.374972        0.281246
angle_coeff 6 fourier 58.020602        0.343737        0.374972        0.281246
angle_coeff 7 fourier 90.420412        0.343737        0.374972        0.281246
angle_coeff 8 fourier 75.498766        0.343737        0.374972        0.281246
angle_coeff 9 cosine/periodic 88.853997              -1               3

# Positive deformation

variable delta equal ${up}*${len0}
variable delta equal 0.02*${len0}
variable delta equal 0.02*18.9704362523268
variable deltaxy equal ${up}*xy
variable deltaxy equal 0.02*xy
variable deltaxz equal ${up}*xz
variable deltaxz equal 0.02*xz
variable deltayz equal ${up}*yz
variable deltayz equal 0.02*yz
if "${dir} == 1" then    "change_box all x delta 0 ${delta} xy delta ${deltaxy} xz delta ${deltaxz} remap units box"
if "${dir} == 2" then    "change_box all y delta 0 ${delta} yz delta ${deltayz} remap units box"
if "${dir} == 3" then    "change_box all z delta 0 ${delta} remap units box"
change_box all z delta 0 ${delta} remap units box
change_box all z delta 0 0.379408725046536 remap units box
Changing box ...
WARNING: Triclinic box skew is large. LAMMPS will run inefficiently. (src/domain.cpp:221)
  triclinic box = (-0.2352977 -0.13158045 -0.16508863) to (17.095037 12.741089 19.184756) with tilt (-9.0357472 0.46701838 0.20905965)
if "${dir} == 4" then    "change_box all yz delta ${delta} remap units box"
if "${dir} == 5" then    "change_box all xz delta ${delta} remap units box"
if "${dir} == 6" then    "change_box all xy delta ${delta} remap units box"

# Relax atoms positions

minimize ${etol} ${ftol} ${maxiter} ${maxeval}
minimize 0 ${ftol} ${maxiter} ${maxeval}
minimize 0 1e-10 ${maxiter} ${maxeval}
minimize 0 1e-10 100000 ${maxeval}
minimize 0 1e-10 100000 100000
Generated 6 of 6 mixed pair_coeff terms from arithmetic mixing rule
Neighbor list info ...
  update: every = 1 steps, delay = 0 steps, check = yes
  max neighbors/atom: 2000, page size: 100000
  master list distance cutoff = 7
  ghost atom cutoff = 7
  binsize = 3.5, bins = 8 4 6
  1 neighbor lists, perpetual/occasional/extra = 1 0 0
  (1) pair lj/cut, perpetual
      attributes: half, newton on
      pair build: half/bin/newton/tri
      stencil: half/bin/3d/tri
      bin: standard
WARNING: Inconsistent image flags
For more information see https://docs.lammps.org/err0027 (src/domain.cpp:1052)
Per MPI rank memory allocation (min/avg/max) = 19.5 | 19.5 | 19.5 Mbytes
   Step          Temp          E_pair         E_mol          TotEng         Press     
    250325   321.52441     -440.66738      596.75711      510.69891     -21736.108    
    250364   321.52441     -462.92491      481.36196      373.04623     -7333.5383    
Loop time of 0.031552 on 1 procs for 39 steps with 371 atoms

100.0% CPU use with 1 MPI tasks x 1 OpenMP threads

Minimization stats:
  Stopping criterion = linesearch alpha is zero
  Energy initial, next-to-last, final = 
      156.089728633494    18.437047713052    18.437047713052
  Force two-norm initial, final = 226.07181 19.30733
  Force max component initial, final = 26.884943 2.3488647
  Final line search alpha, max atom move = 2.8448041e-11 6.68206e-11
  Iterations, force evaluations = 39 132

MPI task timing breakdown:
Section |  min time  |  avg time  |  max time  |%varavg| %total
---------------------------------------------------------------
Pair    | 0.023548   | 0.023548   | 0.023548   |   0.0 | 74.63
Bond    | 0.0066629  | 0.0066629  | 0.0066629  |   0.0 | 21.12
Neigh   | 0          | 0          | 0          |   0.0 |  0.00
Comm    | 0.00076451 | 0.00076451 | 0.00076451 |   0.0 |  2.42
Output  | 0          | 0          | 0          |   0.0 |  0.00
Modify  | 0          | 0          | 0          |   0.0 |  0.00
Other   |            | 0.0005767  |            |       |  1.83

Nlocal:            371 ave         371 max         371 min
Histogram: 1 0 0 0 0 0 0 0 0 0
Nghost:           2285 ave        2285 max        2285 min
Histogram: 1 0 0 0 0 0 0 0 0 0
Neighs:          21600 ave       21600 max       21600 min
Histogram: 1 0 0 0 0 0 0 0 0 0

Total # of neighbors = 21600
Ave neighs/atom = 58.221024
Ave special neighs/atom = 6.1832884
Neighbor list builds = 0
Dangerous builds = 0

# Obtain new stress tensor

variable tmp equal pe
variable e1 equal ${tmp}
variable e1 equal 18.437047713052
variable tmp equal press
variable p1 equal ${tmp}
variable p1 equal -7333.53834079083
variable tmp equal pxx
variable pxx1 equal ${tmp}
variable pxx1 equal -842.074400872771
variable tmp equal pyy
variable pyy1 equal ${tmp}
variable pyy1 equal -4107.87761551354
variable tmp equal pzz
variable pzz1 equal ${tmp}
variable pzz1 equal -17050.6630059862
variable tmp equal pxy
variable pxy1 equal ${tmp}
variable pxy1 equal -4502.57656490717
variable tmp equal pxz
variable pxz1 equal ${tmp}
variable pxz1 equal -1808.29994055302
variable tmp equal pyz
variable pyz1 equal ${tmp}
variable pyz1 equal 4656.3841018628

# Compute elastic constant from pressure tensor

variable C1pos equal ${d1}
variable C1pos equal 22.5514558677625
variable C2pos equal ${d2}
variable C2pos equal 37.6791645521744
variable C3pos equal ${d3}
variable C3pos equal 101.680753561627
variable C4pos equal ${d4}
variable C4pos equal -2.4636794993005
variable C5pos equal ${d5}
variable C5pos equal 0.138354562019
variable C6pos equal ${d6}
variable C6pos equal -1.6652807802684

# Combine positive and negative

variable C1${dir} equal 0.5*(${C1neg}+${C1pos})
variable C13 equal 0.5*(${C1neg}+${C1pos})
variable C13 equal 0.5*(19.2020618801753+${C1pos})
variable C13 equal 0.5*(19.2020618801753+22.5514558677625)
variable C2${dir} equal 0.5*(${C2neg}+${C2pos})
variable C23 equal 0.5*(${C2neg}+${C2pos})
variable C23 equal 0.5*(-1.15936962115475+${C2pos})
variable C23 equal 0.5*(-1.15936962115475+37.6791645521744)
variable C3${dir} equal 0.5*(${C3neg}+${C3pos})
variable C33 equal 0.5*(${C3neg}+${C3pos})
variable C33 equal 0.5*(21.4117694640005+${C3pos})
variable C33 equal 0.5*(21.4117694640005+101.680753561627)
variable C4${dir} equal 0.5*(${C4neg}+${C4pos})
variable C43 equal 0.5*(${C4neg}+${C4pos})
variable C43 equal 0.5*(6.49111210788145+${C4pos})
variable C43 equal 0.5*(6.49111210788145+-2.4636794993005)
variable C5${dir} equal 0.5*(${C5neg}+${C5pos})
variable C53 equal 0.5*(${C5neg}+${C5pos})
variable C53 equal 0.5*(2.3341762299306+${C5pos})
variable C53 equal 0.5*(2.3341762299306+0.138354562019)
variable C6${dir} equal 0.5*(${C6neg}+${C6pos})
variable C63 equal 0.5*(${C6neg}+${C6pos})
variable C63 equal 0.5*(4.9882610490777+${C6pos})
variable C63 equal 0.5*(4.9882610490777+-1.6652807802684)

# Delete dir to make sure it is not reused

variable dir delete

# uyz Perturbation

variable dir equal 4
include ./input/displace_333U-50C-14-vasp.mod
if "${dir} == 1" then    "variable len0 equal ${lx0}"
if "${dir} == 2" then    "variable len0 equal ${ly0}"
if "${dir} == 3" then    "variable len0 equal ${lz0}"
if "${dir} == 4" then    "variable len0 equal ${lz0}"
variable len0 equal ${lz0}
variable len0 equal 18.9704362523268
if "${dir} == 5" then    "variable len0 equal ${lz0}"
if "${dir} == 6" then    "variable len0 equal ${ly0}"

# Reset box and simulation parameters

clear
OMP_NUM_THREADS environment is not set. Defaulting to 1 thread.
  using 1 OpenMP thread(s) per MPI task
box tilt large

The 'box' command has been removed and will be ignored

read_restart restart_333U-50C-14-vasp.equil
Reading restart file ...
  restart file = 10 Sep 2025, LAMMPS = 10 Sep 2025
  restoring atom style full from restart
  triclinic box = (-0.2352977 -0.13158045 -0.16508863) to (17.095037 12.741089 18.805348) with tilt (-9.0357472 0.46701838 0.20905965)
WARNING: Triclinic box skew is large. LAMMPS will run inefficiently. (src/domain.cpp:221)
  1 by 1 by 1 MPI processor grid
  restoring pair style lj/cut from restart
  restoring bond style harmonic from restart
  restoring angle style hybrid from restart
  restoring dihedral style harmonic from restart
  371 atoms
  396 bonds
  751 angles
  942 dihedrals
Finding 1-2 1-3 1-4 neighbors ...
  special bond factors lj:    0        0        1       
  special bond factors coul:  0        0        1       
     4 = max # of 1-2 neighbors
    10 = max # of 1-3 neighbors
    14 = max # of special neighbors
  special bonds CPU = 0.000 seconds
  read_restart CPU = 0.001 seconds
include ./input/angles_333U-50C-14-vasp.mod
angle_style hybrid fourier cosine/periodic
angle_coeff 1 fourier 32.417871        0.343737        0.374972        0.281246
angle_coeff 2 fourier 83.380072        0.343737        0.374972        0.281246
angle_coeff 3 fourier 221.735285        0.343737        0.374972        0.281246
angle_coeff 4 fourier 114.246973        0.343737        0.374972        0.281246
angle_coeff 5 fourier 157.882480        0.343737        0.374972        0.281246
angle_coeff 6 fourier 58.020602        0.343737        0.374972        0.281246
angle_coeff 7 fourier 90.420412        0.343737        0.374972        0.281246
angle_coeff 8 fourier 75.498766        0.343737        0.374972        0.281246
angle_coeff 9 cosine/periodic 88.853997              -1               3

# Negative deformation

variable delta equal -${up}*${len0}
variable delta equal -0.02*${len0}
variable delta equal -0.02*18.9704362523268
variable deltaxy equal -${up}*xy
variable deltaxy equal -0.02*xy
variable deltaxz equal -${up}*xz
variable deltaxz equal -0.02*xz
variable deltayz equal -${up}*yz
variable deltayz equal -0.02*yz
if "${dir} == 1" then    "change_box all x delta 0 ${delta} xy delta ${deltaxy} xz delta ${deltaxz} remap units box"
if "${dir} == 2" then    "change_box all y delta 0 ${delta} yz delta ${deltayz} remap units box"
if "${dir} == 3" then    "change_box all z delta 0 ${delta} remap units box"
if "${dir} == 4" then    "change_box all yz delta ${delta} remap units box"
change_box all yz delta ${delta} remap units box
change_box all yz delta -0.379408725046536 remap units box
Changing box ...
WARNING: Triclinic box skew is large. LAMMPS will run inefficiently. (src/domain.cpp:221)
  triclinic box = (-0.2352977 -0.13158045 -0.16508863) to (17.095037 12.741089 18.805348) with tilt (-9.0357472 0.46701838 -0.17034908)
if "${dir} == 5" then    "change_box all xz delta ${delta} remap units box"
if "${dir} == 6" then    "change_box all xy delta ${delta} remap units box"

# Relax atoms positions

minimize ${etol} ${ftol} ${maxiter} ${maxeval}
minimize 0 ${ftol} ${maxiter} ${maxeval}
minimize 0 1e-10 ${maxiter} ${maxeval}
minimize 0 1e-10 100000 ${maxeval}
minimize 0 1e-10 100000 100000
Generated 6 of 6 mixed pair_coeff terms from arithmetic mixing rule
Neighbor list info ...
  update: every = 1 steps, delay = 0 steps, check = yes
  max neighbors/atom: 2000, page size: 100000
  master list distance cutoff = 7
  ghost atom cutoff = 7
  binsize = 3.5, bins = 8 4 6
  1 neighbor lists, perpetual/occasional/extra = 1 0 0
  (1) pair lj/cut, perpetual
      attributes: half, newton on
      pair build: half/bin/newton/tri
      stencil: half/bin/3d/tri
      bin: standard
WARNING: Inconsistent image flags
For more information see https://docs.lammps.org/err0027 (src/domain.cpp:1052)
Per MPI rank memory allocation (min/avg/max) = 19.5 | 19.5 | 19.5 Mbytes
   Step          Temp          E_pair         E_mol          TotEng         Press     
    250325   321.52441     -421.10719      562.30306      495.80505      3027.8501    
    250357   321.52441     -449.3844       462.88577      368.11054     -1023.7473    
Loop time of 0.0295198 on 1 procs for 32 steps with 371 atoms

100.0% CPU use with 1 MPI tasks x 1 OpenMP threads

Minimization stats:
  Stopping criterion = linesearch alpha is zero
  Energy initial, next-to-last, final = 
      141.195870098952    13.501361144815    13.501361144815
  Force two-norm initial, final = 184.49548 20.545791
  Force max component initial, final = 19.193085 2.5303101
  Final line search alpha, max atom move = 1.8206849e-11 4.6068974e-11
  Iterations, force evaluations = 32 120

MPI task timing breakdown:
Section |  min time  |  avg time  |  max time  |%varavg| %total
---------------------------------------------------------------
Pair    | 0.022177   | 0.022177   | 0.022177   |   0.0 | 75.13
Bond    | 0.00614    | 0.00614    | 0.00614    |   0.0 | 20.80
Neigh   | 0          | 0          | 0          |   0.0 |  0.00
Comm    | 0.00067929 | 0.00067929 | 0.00067929 |   0.0 |  2.30
Output  | 0          | 0          | 0          |   0.0 |  0.00
Modify  | 0          | 0          | 0          |   0.0 |  0.00
Other   |            | 0.0005234  |            |       |  1.77

Nlocal:            371 ave         371 max         371 min
Histogram: 1 0 0 0 0 0 0 0 0 0
Nghost:           2295 ave        2295 max        2295 min
Histogram: 1 0 0 0 0 0 0 0 0 0
Neighs:          22073 ave       22073 max       22073 min
Histogram: 1 0 0 0 0 0 0 0 0 0

Total # of neighbors = 22073
Ave neighs/atom = 59.495957
Ave special neighs/atom = 6.1832884
Neighbor list builds = 0
Dangerous builds = 0

# Obtain new stress tensor

variable tmp equal pxx
variable pxx1 equal ${tmp}
variable pxx1 equal 2745.2272087639
variable tmp equal pyy
variable pyy1 equal ${tmp}
variable pyy1 equal -864.47753870978
variable tmp equal pzz
variable pzz1 equal ${tmp}
variable pzz1 equal -4951.99169742264
variable tmp equal pxy
variable pxy1 equal ${tmp}
variable pxy1 equal -4786.97894917134
variable tmp equal pxz
variable pxz1 equal ${tmp}
variable pxz1 equal -1475.84338808083
variable tmp equal pyz
variable pyz1 equal ${tmp}
variable pyz1 equal 9109.13387445032

# Compute elastic constant from pressure tensor

variable C1neg equal ${d1}
variable C1neg equal -4.61494781957915
variable C2neg equal ${d2}
variable C2neg equal -21.4621641681556
variable C3neg equal ${d3}
variable C3neg equal -41.1873970188095
variable C4neg equal ${d4}
variable C4neg equal 24.7274283622381
variable C5neg equal ${d5}
variable C5neg equal 1.52392820034195
variable C6neg equal ${d6}
variable C6neg equal 0.243268858947549

# Reset box and simulation parameters

clear
OMP_NUM_THREADS environment is not set. Defaulting to 1 thread.
  using 1 OpenMP thread(s) per MPI task
box tilt large

The 'box' command has been removed and will be ignored

read_restart restart_333U-50C-14-vasp.equil
Reading restart file ...
  restart file = 10 Sep 2025, LAMMPS = 10 Sep 2025
  restoring atom style full from restart
  triclinic box = (-0.2352977 -0.13158045 -0.16508863) to (17.095037 12.741089 18.805348) with tilt (-9.0357472 0.46701838 0.20905965)
WARNING: Triclinic box skew is large. LAMMPS will run inefficiently. (src/domain.cpp:221)
  1 by 1 by 1 MPI processor grid
  restoring pair style lj/cut from restart
  restoring bond style harmonic from restart
  restoring angle style hybrid from restart
  restoring dihedral style harmonic from restart
  371 atoms
  396 bonds
  751 angles
  942 dihedrals
Finding 1-2 1-3 1-4 neighbors ...
  special bond factors lj:    0        0        1       
  special bond factors coul:  0        0        1       
     4 = max # of 1-2 neighbors
    10 = max # of 1-3 neighbors
    14 = max # of special neighbors
  special bonds CPU = 0.000 seconds
  read_restart CPU = 0.001 seconds
include ./input/angles_333U-50C-14-vasp.mod
angle_style hybrid fourier cosine/periodic
angle_coeff 1 fourier 32.417871        0.343737        0.374972        0.281246
angle_coeff 2 fourier 83.380072        0.343737        0.374972        0.281246
angle_coeff 3 fourier 221.735285        0.343737        0.374972        0.281246
angle_coeff 4 fourier 114.246973        0.343737        0.374972        0.281246
angle_coeff 5 fourier 157.882480        0.343737        0.374972        0.281246
angle_coeff 6 fourier 58.020602        0.343737        0.374972        0.281246
angle_coeff 7 fourier 90.420412        0.343737        0.374972        0.281246
angle_coeff 8 fourier 75.498766        0.343737        0.374972        0.281246
angle_coeff 9 cosine/periodic 88.853997              -1               3

# Positive deformation

variable delta equal ${up}*${len0}
variable delta equal 0.02*${len0}
variable delta equal 0.02*18.9704362523268
variable deltaxy equal ${up}*xy
variable deltaxy equal 0.02*xy
variable deltaxz equal ${up}*xz
variable deltaxz equal 0.02*xz
variable deltayz equal ${up}*yz
variable deltayz equal 0.02*yz
if "${dir} == 1" then    "change_box all x delta 0 ${delta} xy delta ${deltaxy} xz delta ${deltaxz} remap units box"
if "${dir} == 2" then    "change_box all y delta 0 ${delta} yz delta ${deltayz} remap units box"
if "${dir} == 3" then    "change_box all z delta 0 ${delta} remap units box"
if "${dir} == 4" then    "change_box all yz delta ${delta} remap units box"
change_box all yz delta ${delta} remap units box
change_box all yz delta 0.379408725046536 remap units box
Changing box ...
WARNING: Triclinic box skew is large. LAMMPS will run inefficiently. (src/domain.cpp:221)
  triclinic box = (-0.2352977 -0.13158045 -0.16508863) to (17.095037 12.741089 18.805348) with tilt (-9.0357472 0.46701838 0.58846837)
if "${dir} == 5" then    "change_box all xz delta ${delta} remap units box"
if "${dir} == 6" then    "change_box all xy delta ${delta} remap units box"

# Relax atoms positions

minimize ${etol} ${ftol} ${maxiter} ${maxeval}
minimize 0 ${ftol} ${maxiter} ${maxeval}
minimize 0 1e-10 ${maxiter} ${maxeval}
minimize 0 1e-10 100000 ${maxeval}
minimize 0 1e-10 100000 100000
Generated 6 of 6 mixed pair_coeff terms from arithmetic mixing rule
Neighbor list info ...
  update: every = 1 steps, delay = 0 steps, check = yes
  max neighbors/atom: 2000, page size: 100000
  master list distance cutoff = 7
  ghost atom cutoff = 7
  binsize = 3.5, bins = 8 4 6
  1 neighbor lists, perpetual/occasional/extra = 1 0 0
  (1) pair lj/cut, perpetual
      attributes: half, newton on
      pair build: half/bin/newton/tri
      stencil: half/bin/3d/tri
      bin: standard
WARNING: Inconsistent image flags
For more information see https://docs.lammps.org/err0027 (src/domain.cpp:1052)
Per MPI rank memory allocation (min/avg/max) = 19.5 | 19.5 | 19.5 Mbytes
   Step          Temp          E_pair         E_mol          TotEng         Press     
    250325   321.52441     -423.34296      552.57982      483.84604      3536.0621    
    250380   321.52441     -455.30616      450.85807      350.16109     -886.65454    
Loop time of 0.0476745 on 1 procs for 55 steps with 371 atoms

100.0% CPU use with 1 MPI tasks x 1 OpenMP threads

Minimization stats:
  Stopping criterion = linesearch alpha is zero
  Energy initial, next-to-last, final = 
      129.236865166993  -4.44809084022285  -4.44809084022285
  Force two-norm initial, final = 186.34969 12.359264
  Force max component initial, final = 18.712587 1.4511519
  Final line search alpha, max atom move = 4.6289609e-11 6.7173254e-11
  Iterations, force evaluations = 55 198

MPI task timing breakdown:
Section |  min time  |  avg time  |  max time  |%varavg| %total
---------------------------------------------------------------
Pair    | 0.035891   | 0.035891   | 0.035891   |   0.0 | 75.28
Bond    | 0.0097809  | 0.0097809  | 0.0097809  |   0.0 | 20.52
Neigh   | 0          | 0          | 0          |   0.0 |  0.00
Comm    | 0.0011291  | 0.0011291  | 0.0011291  |   0.0 |  2.37
Output  | 0          | 0          | 0          |   0.0 |  0.00
Modify  | 0          | 0          | 0          |   0.0 |  0.00
Other   |            | 0.0008733  |            |       |  1.83

Nlocal:            371 ave         371 max         371 min
Histogram: 1 0 0 0 0 0 0 0 0 0
Nghost:           2303 ave        2303 max        2303 min
Histogram: 1 0 0 0 0 0 0 0 0 0
Neighs:          22060 ave       22060 max       22060 min
Histogram: 1 0 0 0 0 0 0 0 0 0

Total # of neighbors = 22060
Ave neighs/atom = 59.460916
Ave special neighs/atom = 6.1832884
Neighbor list builds = 0
Dangerous builds = 0

# Obtain new stress tensor

variable tmp equal pe
variable e1 equal ${tmp}
variable e1 equal -4.44809084022285
variable tmp equal press
variable p1 equal ${tmp}
variable p1 equal -886.654537486308
variable tmp equal pxx
variable pxx1 equal ${tmp}
variable pxx1 equal 3516.56457772216
variable tmp equal pyy
variable pyy1 equal ${tmp}
variable pyy1 equal -920.650599853229
variable tmp equal pzz
variable pzz1 equal ${tmp}
variable pzz1 equal -5255.87759032786
variable tmp equal pxy
variable pxy1 equal ${tmp}
variable pxy1 equal -3905.07948799438
variable tmp equal pxz
variable pxz1 equal ${tmp}
variable pxz1 equal -1944.63473190363
variable tmp equal pyz
variable pyz1 equal ${tmp}
variable pyz1 equal 237.93860539136

# Compute elastic constant from pressure tensor

variable C1pos equal ${d1}
variable C1pos equal 0.758260974787852
variable C2pos equal ${d2}
variable C2pos equal 21.7430294738728
variable C3pos equal ${d3}
variable C3pos equal 42.7068264833356
variable C4pos equal ${d4}
variable C4pos equal 19.6285479830567
variable C5pos equal ${d5}
variable C5pos equal 0.82002851877205
variable C6pos equal ${d6}
variable C6pos equal -4.65276616483235

# Combine positive and negative

variable C1${dir} equal 0.5*(${C1neg}+${C1pos})
variable C14 equal 0.5*(${C1neg}+${C1pos})
variable C14 equal 0.5*(-4.61494781957915+${C1pos})
variable C14 equal 0.5*(-4.61494781957915+0.758260974787852)
variable C2${dir} equal 0.5*(${C2neg}+${C2pos})
variable C24 equal 0.5*(${C2neg}+${C2pos})
variable C24 equal 0.5*(-21.4621641681556+${C2pos})
variable C24 equal 0.5*(-21.4621641681556+21.7430294738728)
variable C3${dir} equal 0.5*(${C3neg}+${C3pos})
variable C34 equal 0.5*(${C3neg}+${C3pos})
variable C34 equal 0.5*(-41.1873970188095+${C3pos})
variable C34 equal 0.5*(-41.1873970188095+42.7068264833356)
variable C4${dir} equal 0.5*(${C4neg}+${C4pos})
variable C44 equal 0.5*(${C4neg}+${C4pos})
variable C44 equal 0.5*(24.7274283622381+${C4pos})
variable C44 equal 0.5*(24.7274283622381+19.6285479830567)
variable C5${dir} equal 0.5*(${C5neg}+${C5pos})
variable C54 equal 0.5*(${C5neg}+${C5pos})
variable C54 equal 0.5*(1.52392820034195+${C5pos})
variable C54 equal 0.5*(1.52392820034195+0.82002851877205)
variable C6${dir} equal 0.5*(${C6neg}+${C6pos})
variable C64 equal 0.5*(${C6neg}+${C6pos})
variable C64 equal 0.5*(0.243268858947549+${C6pos})
variable C64 equal 0.5*(0.243268858947549+-4.65276616483235)

# Delete dir to make sure it is not reused

variable dir delete

# uxz Perturbation

variable dir equal 5
include ./input/displace_333U-50C-14-vasp.mod
if "${dir} == 1" then    "variable len0 equal ${lx0}"
if "${dir} == 2" then    "variable len0 equal ${ly0}"
if "${dir} == 3" then    "variable len0 equal ${lz0}"
if "${dir} == 4" then    "variable len0 equal ${lz0}"
if "${dir} == 5" then    "variable len0 equal ${lz0}"
variable len0 equal ${lz0}
variable len0 equal 18.9704362523268
if "${dir} == 6" then    "variable len0 equal ${ly0}"

# Reset box and simulation parameters

clear
OMP_NUM_THREADS environment is not set. Defaulting to 1 thread.
  using 1 OpenMP thread(s) per MPI task
box tilt large

The 'box' command has been removed and will be ignored

read_restart restart_333U-50C-14-vasp.equil
Reading restart file ...
  restart file = 10 Sep 2025, LAMMPS = 10 Sep 2025
  restoring atom style full from restart
  triclinic box = (-0.2352977 -0.13158045 -0.16508863) to (17.095037 12.741089 18.805348) with tilt (-9.0357472 0.46701838 0.20905965)
WARNING: Triclinic box skew is large. LAMMPS will run inefficiently. (src/domain.cpp:221)
  1 by 1 by 1 MPI processor grid
  restoring pair style lj/cut from restart
  restoring bond style harmonic from restart
  restoring angle style hybrid from restart
  restoring dihedral style harmonic from restart
  371 atoms
  396 bonds
  751 angles
  942 dihedrals
Finding 1-2 1-3 1-4 neighbors ...
  special bond factors lj:    0        0        1       
  special bond factors coul:  0        0        1       
     4 = max # of 1-2 neighbors
    10 = max # of 1-3 neighbors
    14 = max # of special neighbors
  special bonds CPU = 0.000 seconds
  read_restart CPU = 0.001 seconds
include ./input/angles_333U-50C-14-vasp.mod
angle_style hybrid fourier cosine/periodic
angle_coeff 1 fourier 32.417871        0.343737        0.374972        0.281246
angle_coeff 2 fourier 83.380072        0.343737        0.374972        0.281246
angle_coeff 3 fourier 221.735285        0.343737        0.374972        0.281246
angle_coeff 4 fourier 114.246973        0.343737        0.374972        0.281246
angle_coeff 5 fourier 157.882480        0.343737        0.374972        0.281246
angle_coeff 6 fourier 58.020602        0.343737        0.374972        0.281246
angle_coeff 7 fourier 90.420412        0.343737        0.374972        0.281246
angle_coeff 8 fourier 75.498766        0.343737        0.374972        0.281246
angle_coeff 9 cosine/periodic 88.853997              -1               3

# Negative deformation

variable delta equal -${up}*${len0}
variable delta equal -0.02*${len0}
variable delta equal -0.02*18.9704362523268
variable deltaxy equal -${up}*xy
variable deltaxy equal -0.02*xy
variable deltaxz equal -${up}*xz
variable deltaxz equal -0.02*xz
variable deltayz equal -${up}*yz
variable deltayz equal -0.02*yz
if "${dir} == 1" then    "change_box all x delta 0 ${delta} xy delta ${deltaxy} xz delta ${deltaxz} remap units box"
if "${dir} == 2" then    "change_box all y delta 0 ${delta} yz delta ${deltayz} remap units box"
if "${dir} == 3" then    "change_box all z delta 0 ${delta} remap units box"
if "${dir} == 4" then    "change_box all yz delta ${delta} remap units box"
if "${dir} == 5" then    "change_box all xz delta ${delta} remap units box"
change_box all xz delta ${delta} remap units box
change_box all xz delta -0.379408725046536 remap units box
Changing box ...
WARNING: Triclinic box skew is large. LAMMPS will run inefficiently. (src/domain.cpp:221)
  triclinic box = (-0.2352977 -0.13158045 -0.16508863) to (17.095037 12.741089 18.805348) with tilt (-9.0357472 0.087609651 0.20905965)
if "${dir} == 6" then    "change_box all xy delta ${delta} remap units box"

# Relax atoms positions

minimize ${etol} ${ftol} ${maxiter} ${maxeval}
minimize 0 ${ftol} ${maxiter} ${maxeval}
minimize 0 1e-10 ${maxiter} ${maxeval}
minimize 0 1e-10 100000 ${maxeval}
minimize 0 1e-10 100000 100000
Generated 6 of 6 mixed pair_coeff terms from arithmetic mixing rule
Neighbor list info ...
  update: every = 1 steps, delay = 0 steps, check = yes
  max neighbors/atom: 2000, page size: 100000
  master list distance cutoff = 7
  ghost atom cutoff = 7
  binsize = 3.5, bins = 8 4 6
  1 neighbor lists, perpetual/occasional/extra = 1 0 0
  (1) pair lj/cut, perpetual
      attributes: half, newton on
      pair build: half/bin/newton/tri
      stencil: half/bin/3d/tri
      bin: standard
WARNING: Inconsistent image flags
For more information see https://docs.lammps.org/err0027 (src/domain.cpp:1052)
Per MPI rank memory allocation (min/avg/max) = 19.5 | 19.5 | 19.5 Mbytes
   Step          Temp          E_pair         E_mol          TotEng         Press     
    250325   321.52441     -422.26001      554.84505      487.19422      3248.0761    
    250406   321.52441     -450.25462      448.0554       352.40996     -12.073619    
Loop time of 0.13001 on 1 procs for 81 steps with 371 atoms

100.0% CPU use with 1 MPI tasks x 1 OpenMP threads

Minimization stats:
  Stopping criterion = linesearch alpha is zero
  Energy initial, next-to-last, final = 
      132.585042377645  -2.19921825044378  -2.19921825044378
  Force two-norm initial, final = 186.48719 7.719992
  Force max component initial, final = 17.238085 1.0311795
  Final line search alpha, max atom move = 1.8063248e-10 1.8626451e-10
  Iterations, force evaluations = 81 542

MPI task timing breakdown:
Section |  min time  |  avg time  |  max time  |%varavg| %total
---------------------------------------------------------------
Pair    | 0.097375   | 0.097375   | 0.097375   |   0.0 | 74.90
Bond    | 0.027569   | 0.027569   | 0.027569   |   0.0 | 21.21
Neigh   | 0          | 0          | 0          |   0.0 |  0.00
Comm    | 0.0031371  | 0.0031371  | 0.0031371  |   0.0 |  2.41
Output  | 0          | 0          | 0          |   0.0 |  0.00
Modify  | 0          | 0          | 0          |   0.0 |  0.00
Other   |            | 0.001929   |            |       |  1.48

Nlocal:            371 ave         371 max         371 min
Histogram: 1 0 0 0 0 0 0 0 0 0
Nghost:           2299 ave        2299 max        2299 min
Histogram: 1 0 0 0 0 0 0 0 0 0
Neighs:          22058 ave       22058 max       22058 min
Histogram: 1 0 0 0 0 0 0 0 0 0

Total # of neighbors = 22058
Ave neighs/atom = 59.455526
Ave special neighs/atom = 6.1832884
Neighbor list builds = 0
Dangerous builds = 0

# Obtain new stress tensor

variable tmp equal pxx
variable pxx1 equal ${tmp}
variable pxx1 equal 3560.26533598951
variable tmp equal pyy
variable pyy1 equal ${tmp}
variable pyy1 equal 455.231705643316
variable tmp equal pzz
variable pzz1 equal ${tmp}
variable pzz1 equal -4051.71789791794
variable tmp equal pxy
variable pxy1 equal ${tmp}
variable pxy1 equal -4828.4218241131
variable tmp equal pxz
variable pxz1 equal ${tmp}
variable pxz1 equal 2176.98633331905
variable tmp equal pyz
variable pyz1 equal ${tmp}
variable pyz1 equal 5366.7431250437

# Compute elastic constant from pressure tensor

variable C1neg equal ${d1}
variable C1neg equal -0.539757183451102
variable C2neg equal ${d2}
variable C2neg equal -14.8636179463901
variable C3neg equal ${d3}
variable C3neg equal -36.686028021286
variable C4neg equal ${d4}
variable C4neg equal 6.015474615205
variable C5neg equal ${d5}
variable C5neg equal 19.7880768073414
variable C6neg equal ${d6}
variable C6neg equal 0.036054484238748

# Reset box and simulation parameters

clear
OMP_NUM_THREADS environment is not set. Defaulting to 1 thread.
  using 1 OpenMP thread(s) per MPI task
box tilt large

The 'box' command has been removed and will be ignored

read_restart restart_333U-50C-14-vasp.equil
Reading restart file ...
  restart file = 10 Sep 2025, LAMMPS = 10 Sep 2025
  restoring atom style full from restart
  triclinic box = (-0.2352977 -0.13158045 -0.16508863) to (17.095037 12.741089 18.805348) with tilt (-9.0357472 0.46701838 0.20905965)
WARNING: Triclinic box skew is large. LAMMPS will run inefficiently. (src/domain.cpp:221)
  1 by 1 by 1 MPI processor grid
  restoring pair style lj/cut from restart
  restoring bond style harmonic from restart
  restoring angle style hybrid from restart
  restoring dihedral style harmonic from restart
  371 atoms
  396 bonds
  751 angles
  942 dihedrals
Finding 1-2 1-3 1-4 neighbors ...
  special bond factors lj:    0        0        1       
  special bond factors coul:  0        0        1       
     4 = max # of 1-2 neighbors
    10 = max # of 1-3 neighbors
    14 = max # of special neighbors
  special bonds CPU = 0.000 seconds
  read_restart CPU = 0.001 seconds
include ./input/angles_333U-50C-14-vasp.mod
angle_style hybrid fourier cosine/periodic
angle_coeff 1 fourier 32.417871        0.343737        0.374972        0.281246
angle_coeff 2 fourier 83.380072        0.343737        0.374972        0.281246
angle_coeff 3 fourier 221.735285        0.343737        0.374972        0.281246
angle_coeff 4 fourier 114.246973        0.343737        0.374972        0.281246
angle_coeff 5 fourier 157.882480        0.343737        0.374972        0.281246
angle_coeff 6 fourier 58.020602        0.343737        0.374972        0.281246
angle_coeff 7 fourier 90.420412        0.343737        0.374972        0.281246
angle_coeff 8 fourier 75.498766        0.343737        0.374972        0.281246
angle_coeff 9 cosine/periodic 88.853997              -1               3

# Positive deformation

variable delta equal ${up}*${len0}
variable delta equal 0.02*${len0}
variable delta equal 0.02*18.9704362523268
variable deltaxy equal ${up}*xy
variable deltaxy equal 0.02*xy
variable deltaxz equal ${up}*xz
variable deltaxz equal 0.02*xz
variable deltayz equal ${up}*yz
variable deltayz equal 0.02*yz
if "${dir} == 1" then    "change_box all x delta 0 ${delta} xy delta ${deltaxy} xz delta ${deltaxz} remap units box"
if "${dir} == 2" then    "change_box all y delta 0 ${delta} yz delta ${deltayz} remap units box"
if "${dir} == 3" then    "change_box all z delta 0 ${delta} remap units box"
if "${dir} == 4" then    "change_box all yz delta ${delta} remap units box"
if "${dir} == 5" then    "change_box all xz delta ${delta} remap units box"
change_box all xz delta ${delta} remap units box
change_box all xz delta 0.379408725046536 remap units box
Changing box ...
WARNING: Triclinic box skew is large. LAMMPS will run inefficiently. (src/domain.cpp:221)
  triclinic box = (-0.2352977 -0.13158045 -0.16508863) to (17.095037 12.741089 18.805348) with tilt (-9.0357472 0.8464271 0.20905965)
if "${dir} == 6" then    "change_box all xy delta ${delta} remap units box"

# Relax atoms positions

minimize ${etol} ${ftol} ${maxiter} ${maxeval}
minimize 0 ${ftol} ${maxiter} ${maxeval}
minimize 0 1e-10 ${maxiter} ${maxeval}
minimize 0 1e-10 100000 ${maxeval}
minimize 0 1e-10 100000 100000
Generated 6 of 6 mixed pair_coeff terms from arithmetic mixing rule
Neighbor list info ...
  update: every = 1 steps, delay = 0 steps, check = yes
  max neighbors/atom: 2000, page size: 100000
  master list distance cutoff = 7
  ghost atom cutoff = 7
  binsize = 3.5, bins = 8 4 6
  1 neighbor lists, perpetual/occasional/extra = 1 0 0
  (1) pair lj/cut, perpetual
      attributes: half, newton on
      pair build: half/bin/newton/tri
      stencil: half/bin/3d/tri
      bin: standard
WARNING: Inconsistent image flags
For more information see https://docs.lammps.org/err0027 (src/domain.cpp:1052)
Per MPI rank memory allocation (min/avg/max) = 19.5 | 19.5 | 19.5 Mbytes
   Step          Temp          E_pair         E_mol          TotEng         Press     
    250325   321.52441     -422.49375      560.21904      492.33447      3299.8938    
    250360   321.52441     -453.5172       460.36304      361.45502     -1414.3148    
Loop time of 0.0301398 on 1 procs for 35 steps with 371 atoms

100.0% CPU use with 1 MPI tasks x 1 OpenMP threads

Minimization stats:
  Stopping criterion = linesearch alpha is zero
  Energy initial, next-to-last, final = 
      137.725295529165   6.84583801680941   6.84583801680941
  Force two-norm initial, final = 183.64074 18.733839
  Force max component initial, final = 19.920847 3.0571559
  Final line search alpha, max atom move = 1.9089679e-11 5.8360123e-11
  Iterations, force evaluations = 35 125

MPI task timing breakdown:
Section |  min time  |  avg time  |  max time  |%varavg| %total
---------------------------------------------------------------
Pair    | 0.022713   | 0.022713   | 0.022713   |   0.0 | 75.36
Bond    | 0.0061567  | 0.0061567  | 0.0061567  |   0.0 | 20.43
Neigh   | 0          | 0          | 0          |   0.0 |  0.00
Comm    | 0.000718   | 0.000718   | 0.000718   |   0.0 |  2.38
Output  | 0          | 0          | 0          |   0.0 |  0.00
Modify  | 0          | 0          | 0          |   0.0 |  0.00
Other   |            | 0.000552   |            |       |  1.83

Nlocal:            371 ave         371 max         371 min
Histogram: 1 0 0 0 0 0 0 0 0 0
Nghost:           2303 ave        2303 max        2303 min
Histogram: 1 0 0 0 0 0 0 0 0 0
Neighs:          22065 ave       22065 max       22065 min
Histogram: 1 0 0 0 0 0 0 0 0 0

Total # of neighbors = 22065
Ave neighs/atom = 59.474394
Ave special neighs/atom = 6.1832884
Neighbor list builds = 0
Dangerous builds = 0

# Obtain new stress tensor

variable tmp equal pe
variable e1 equal ${tmp}
variable e1 equal 6.84583801680941
variable tmp equal press
variable p1 equal ${tmp}
variable p1 equal -1414.31481659312
variable tmp equal pxx
variable pxx1 equal ${tmp}
variable pxx1 equal 2601.82315732382
variable tmp equal pyy
variable pyy1 equal ${tmp}
variable pyy1 equal -1173.27633802336
variable tmp equal pzz
variable pzz1 equal ${tmp}
variable pzz1 equal -5671.49126907983
variable tmp equal pxy
variable pxy1 equal ${tmp}
variable pxy1 equal -4046.95058660158
variable tmp equal pxz
variable pxz1 equal ${tmp}
variable pxz1 equal -5624.32924146176
variable tmp equal pyz
variable pyz1 equal ${tmp}
variable pyz1 equal 4701.75844821072

# Compute elastic constant from pressure tensor

variable C1pos equal ${d1}
variable C1pos equal 5.33196807677955
variable C2pos equal ${d2}
variable C2pos equal 23.0061581647235
variable C3pos equal ${d3}
variable C3pos equal 44.7848948770954
variable C4pos equal ${d4}
variable C4pos equal -2.6905512310401
variable C5pos equal ${d5}
variable C5pos equal 19.2185010665627
variable C6pos equal ${d6}
variable C6pos equal -3.94341067179635

# Combine positive and negative

variable C1${dir} equal 0.5*(${C1neg}+${C1pos})
variable C15 equal 0.5*(${C1neg}+${C1pos})
variable C15 equal 0.5*(-0.539757183451102+${C1pos})
variable C15 equal 0.5*(-0.539757183451102+5.33196807677955)
variable C2${dir} equal 0.5*(${C2neg}+${C2pos})
variable C25 equal 0.5*(${C2neg}+${C2pos})
variable C25 equal 0.5*(-14.8636179463901+${C2pos})
variable C25 equal 0.5*(-14.8636179463901+23.0061581647235)
variable C3${dir} equal 0.5*(${C3neg}+${C3pos})
variable C35 equal 0.5*(${C3neg}+${C3pos})
variable C35 equal 0.5*(-36.686028021286+${C3pos})
variable C35 equal 0.5*(-36.686028021286+44.7848948770954)
variable C4${dir} equal 0.5*(${C4neg}+${C4pos})
variable C45 equal 0.5*(${C4neg}+${C4pos})
variable C45 equal 0.5*(6.015474615205+${C4pos})
variable C45 equal 0.5*(6.015474615205+-2.6905512310401)
variable C5${dir} equal 0.5*(${C5neg}+${C5pos})
variable C55 equal 0.5*(${C5neg}+${C5pos})
variable C55 equal 0.5*(19.7880768073414+${C5pos})
variable C55 equal 0.5*(19.7880768073414+19.2185010665627)
variable C6${dir} equal 0.5*(${C6neg}+${C6pos})
variable C65 equal 0.5*(${C6neg}+${C6pos})
variable C65 equal 0.5*(0.036054484238748+${C6pos})
variable C65 equal 0.5*(0.036054484238748+-3.94341067179635)

# Delete dir to make sure it is not reused

variable dir delete

# uxy Perturbation

variable dir equal 6
include ./input/displace_333U-50C-14-vasp.mod
if "${dir} == 1" then    "variable len0 equal ${lx0}"
if "${dir} == 2" then    "variable len0 equal ${ly0}"
if "${dir} == 3" then    "variable len0 equal ${lz0}"
if "${dir} == 4" then    "variable len0 equal ${lz0}"
if "${dir} == 5" then    "variable len0 equal ${lz0}"
if "${dir} == 6" then    "variable len0 equal ${ly0}"
variable len0 equal ${ly0}
variable len0 equal 12.8726698961482

# Reset box and simulation parameters

clear
OMP_NUM_THREADS environment is not set. Defaulting to 1 thread.
  using 1 OpenMP thread(s) per MPI task
box tilt large

The 'box' command has been removed and will be ignored

read_restart restart_333U-50C-14-vasp.equil
Reading restart file ...
  restart file = 10 Sep 2025, LAMMPS = 10 Sep 2025
  restoring atom style full from restart
  triclinic box = (-0.2352977 -0.13158045 -0.16508863) to (17.095037 12.741089 18.805348) with tilt (-9.0357472 0.46701838 0.20905965)
WARNING: Triclinic box skew is large. LAMMPS will run inefficiently. (src/domain.cpp:221)
  1 by 1 by 1 MPI processor grid
  restoring pair style lj/cut from restart
  restoring bond style harmonic from restart
  restoring angle style hybrid from restart
  restoring dihedral style harmonic from restart
  371 atoms
  396 bonds
  751 angles
  942 dihedrals
Finding 1-2 1-3 1-4 neighbors ...
  special bond factors lj:    0        0        1       
  special bond factors coul:  0        0        1       
     4 = max # of 1-2 neighbors
    10 = max # of 1-3 neighbors
    14 = max # of special neighbors
  special bonds CPU = 0.000 seconds
  read_restart CPU = 0.001 seconds
include ./input/angles_333U-50C-14-vasp.mod
angle_style hybrid fourier cosine/periodic
angle_coeff 1 fourier 32.417871        0.343737        0.374972        0.281246
angle_coeff 2 fourier 83.380072        0.343737        0.374972        0.281246
angle_coeff 3 fourier 221.735285        0.343737        0.374972        0.281246
angle_coeff 4 fourier 114.246973        0.343737        0.374972        0.281246
angle_coeff 5 fourier 157.882480        0.343737        0.374972        0.281246
angle_coeff 6 fourier 58.020602        0.343737        0.374972        0.281246
angle_coeff 7 fourier 90.420412        0.343737        0.374972        0.281246
angle_coeff 8 fourier 75.498766        0.343737        0.374972        0.281246
angle_coeff 9 cosine/periodic 88.853997              -1               3

# Negative deformation

variable delta equal -${up}*${len0}
variable delta equal -0.02*${len0}
variable delta equal -0.02*12.8726698961482
variable deltaxy equal -${up}*xy
variable deltaxy equal -0.02*xy
variable deltaxz equal -${up}*xz
variable deltaxz equal -0.02*xz
variable deltayz equal -${up}*yz
variable deltayz equal -0.02*yz
if "${dir} == 1" then    "change_box all x delta 0 ${delta} xy delta ${deltaxy} xz delta ${deltaxz} remap units box"
if "${dir} == 2" then    "change_box all y delta 0 ${delta} yz delta ${deltayz} remap units box"
if "${dir} == 3" then    "change_box all z delta 0 ${delta} remap units box"
if "${dir} == 4" then    "change_box all yz delta ${delta} remap units box"
if "${dir} == 5" then    "change_box all xz delta ${delta} remap units box"
if "${dir} == 6" then    "change_box all xy delta ${delta} remap units box"
change_box all xy delta ${delta} remap units box
change_box all xy delta -0.257453397922964 remap units box
Changing box ...
WARNING: Triclinic box skew is large. LAMMPS will run inefficiently. (src/domain.cpp:221)
  triclinic box = (-0.2352977 -0.13158045 -0.16508863) to (17.095037 12.741089 18.805348) with tilt (-9.2932006 0.46701838 0.20905965)

# Relax atoms positions

minimize ${etol} ${ftol} ${maxiter} ${maxeval}
minimize 0 ${ftol} ${maxiter} ${maxeval}
minimize 0 1e-10 ${maxiter} ${maxeval}
minimize 0 1e-10 100000 ${maxeval}
minimize 0 1e-10 100000 100000
Generated 6 of 6 mixed pair_coeff terms from arithmetic mixing rule
Neighbor list info ...
  update: every = 1 steps, delay = 0 steps, check = yes
  max neighbors/atom: 2000, page size: 100000
  master list distance cutoff = 7
  ghost atom cutoff = 7
  binsize = 3.5, bins = 8 4 6
  1 neighbor lists, perpetual/occasional/extra = 1 0 0
  (1) pair lj/cut, perpetual
      attributes: half, newton on
      pair build: half/bin/newton/tri
      stencil: half/bin/3d/tri
      bin: standard
WARNING: Inconsistent image flags
For more information see https://docs.lammps.org/err0027 (src/domain.cpp:1052)
Per MPI rank memory allocation (min/avg/max) = 19.5 | 19.5 | 19.5 Mbytes
   Step          Temp          E_pair         E_mol          TotEng         Press     
    250325   321.52441     -421.63992      550.01569      482.98495      3741.9845    
    250370   321.52441     -453.29858      454.12166      355.43226     -813.96668    
Loop time of 0.107728 on 1 procs for 45 steps with 371 atoms

100.0% CPU use with 1 MPI tasks x 1 OpenMP threads

Minimization stats:
  Stopping criterion = linesearch alpha is zero
  Energy initial, next-to-last, final = 
      128.375773147277  0.823084832154166  0.823084832154166
  Force two-norm initial, final = 183.90981 15.431084
  Force max component initial, final = 17.988609 1.7806567
  Final line search alpha, max atom move = 5.2302198e-11 9.3132257e-11
  Iterations, force evaluations = 45 452

MPI task timing breakdown:
Section |  min time  |  avg time  |  max time  |%varavg| %total
---------------------------------------------------------------
Pair    | 0.08116    | 0.08116    | 0.08116    |   0.0 | 75.34
Bond    | 0.022388   | 0.022388   | 0.022388   |   0.0 | 20.78
Neigh   | 0          | 0          | 0          |   0.0 |  0.00
Comm    | 0.0026087  | 0.0026087  | 0.0026087  |   0.0 |  2.42
Output  | 0          | 0          | 0          |   0.0 |  0.00
Modify  | 0          | 0          | 0          |   0.0 |  0.00
Other   |            | 0.001572   |            |       |  1.46

Nlocal:            371 ave         371 max         371 min
Histogram: 1 0 0 0 0 0 0 0 0 0
Nghost:           2311 ave        2311 max        2311 min
Histogram: 1 0 0 0 0 0 0 0 0 0
Neighs:          22080 ave       22080 max       22080 min
Histogram: 1 0 0 0 0 0 0 0 0 0

Total # of neighbors = 22080
Ave neighs/atom = 59.514825
Ave special neighs/atom = 6.1832884
Neighbor list builds = 0
Dangerous builds = 0

# Obtain new stress tensor

variable tmp equal pxx
variable pxx1 equal ${tmp}
variable pxx1 equal 3086.6958034199
variable tmp equal pyy
variable pyy1 equal ${tmp}
variable pyy1 equal -536.079022645208
variable tmp equal pzz
variable pzz1 equal ${tmp}
variable pzz1 equal -4992.51682164484
variable tmp equal pxy
variable pxy1 equal ${tmp}
variable pxy1 equal -743.063468765074
variable tmp equal pxz
variable pxz1 equal ${tmp}
variable pxz1 equal -1873.2044153476
variable tmp equal pyz
variable pyz1 equal ${tmp}
variable pyz1 equal 4380.5442705104

# Compute elastic constant from pressure tensor

variable C1neg equal ${d1}
variable C1neg equal -2.90760484629915
variable C2neg equal ${d2}
variable C2neg equal -19.8201715878327
variable C3neg equal ${d3}
variable C3neg equal -41.3900226399205
variable C4neg equal ${d4}
variable C4neg equal 1.0844803425385
variable C5neg equal ${d5}
variable C5neg equal -0.4628769359919
variable C6neg equal ${d6}
variable C6neg equal 20.4628462609789

# Reset box and simulation parameters

clear
OMP_NUM_THREADS environment is not set. Defaulting to 1 thread.
  using 1 OpenMP thread(s) per MPI task
box tilt large

The 'box' command has been removed and will be ignored

read_restart restart_333U-50C-14-vasp.equil
Reading restart file ...
  restart file = 10 Sep 2025, LAMMPS = 10 Sep 2025
  restoring atom style full from restart
  triclinic box = (-0.2352977 -0.13158045 -0.16508863) to (17.095037 12.741089 18.805348) with tilt (-9.0357472 0.46701838 0.20905965)
WARNING: Triclinic box skew is large. LAMMPS will run inefficiently. (src/domain.cpp:221)
  1 by 1 by 1 MPI processor grid
  restoring pair style lj/cut from restart
  restoring bond style harmonic from restart
  restoring angle style hybrid from restart
  restoring dihedral style harmonic from restart
  371 atoms
  396 bonds
  751 angles
  942 dihedrals
Finding 1-2 1-3 1-4 neighbors ...
  special bond factors lj:    0        0        1       
  special bond factors coul:  0        0        1       
     4 = max # of 1-2 neighbors
    10 = max # of 1-3 neighbors
    14 = max # of special neighbors
  special bonds CPU = 0.000 seconds
  read_restart CPU = 0.001 seconds
include ./input/angles_333U-50C-14-vasp.mod
angle_style hybrid fourier cosine/periodic
angle_coeff 1 fourier 32.417871        0.343737        0.374972        0.281246
angle_coeff 2 fourier 83.380072        0.343737        0.374972        0.281246
angle_coeff 3 fourier 221.735285        0.343737        0.374972        0.281246
angle_coeff 4 fourier 114.246973        0.343737        0.374972        0.281246
angle_coeff 5 fourier 157.882480        0.343737        0.374972        0.281246
angle_coeff 6 fourier 58.020602        0.343737        0.374972        0.281246
angle_coeff 7 fourier 90.420412        0.343737        0.374972        0.281246
angle_coeff 8 fourier 75.498766        0.343737        0.374972        0.281246
angle_coeff 9 cosine/periodic 88.853997              -1               3

# Positive deformation

variable delta equal ${up}*${len0}
variable delta equal 0.02*${len0}
variable delta equal 0.02*12.8726698961482
variable deltaxy equal ${up}*xy
variable deltaxy equal 0.02*xy
variable deltaxz equal ${up}*xz
variable deltaxz equal 0.02*xz
variable deltayz equal ${up}*yz
variable deltayz equal 0.02*yz
if "${dir} == 1" then    "change_box all x delta 0 ${delta} xy delta ${deltaxy} xz delta ${deltaxz} remap units box"
if "${dir} == 2" then    "change_box all y delta 0 ${delta} yz delta ${deltayz} remap units box"
if "${dir} == 3" then    "change_box all z delta 0 ${delta} remap units box"
if "${dir} == 4" then    "change_box all yz delta ${delta} remap units box"
if "${dir} == 5" then    "change_box all xz delta ${delta} remap units box"
if "${dir} == 6" then    "change_box all xy delta ${delta} remap units box"
change_box all xy delta ${delta} remap units box
change_box all xy delta 0.257453397922964 remap units box
Changing box ...
WARNING: Triclinic box skew is large. LAMMPS will run inefficiently. (src/domain.cpp:221)
  triclinic box = (-0.2352977 -0.13158045 -0.16508863) to (17.095037 12.741089 18.805348) with tilt (-8.7782938 0.46701838 0.20905965)

# Relax atoms positions

minimize ${etol} ${ftol} ${maxiter} ${maxeval}
minimize 0 ${ftol} ${maxiter} ${maxeval}
minimize 0 1e-10 ${maxiter} ${maxeval}
minimize 0 1e-10 100000 ${maxeval}
minimize 0 1e-10 100000 100000
Generated 6 of 6 mixed pair_coeff terms from arithmetic mixing rule
Neighbor list info ...
  update: every = 1 steps, delay = 0 steps, check = yes
  max neighbors/atom: 2000, page size: 100000
  master list distance cutoff = 7
  ghost atom cutoff = 7
  binsize = 3.5, bins = 8 4 6
  1 neighbor lists, perpetual/occasional/extra = 1 0 0
  (1) pair lj/cut, perpetual
      attributes: half, newton on
      pair build: half/bin/newton/tri
      stencil: half/bin/3d/tri
      bin: standard
WARNING: Inconsistent image flags
For more information see https://docs.lammps.org/err0027 (src/domain.cpp:1052)
Per MPI rank memory allocation (min/avg/max) = 19.5 | 19.5 | 19.5 Mbytes
   Step          Temp          E_pair         E_mol          TotEng         Press     
    250325   321.52441     -423.7618       563.70622      494.55361      2813.7708    
    250361   321.52441     -450.92182      459.70376      363.39112     -1135.813     
Loop time of 0.0306218 on 1 procs for 36 steps with 371 atoms

100.0% CPU use with 1 MPI tasks x 1 OpenMP threads

Minimization stats:
  Stopping criterion = linesearch alpha is zero
  Energy initial, next-to-last, final = 
      139.944427952886   8.78193725520862   8.78193725520862
  Force two-norm initial, final = 187.62192 17.259651
  Force max component initial, final = 23.949936 2.1847662
  Final line search alpha, max atom move = 4.0739601e-11 8.9006504e-11
  Iterations, force evaluations = 36 126

MPI task timing breakdown:
Section |  min time  |  avg time  |  max time  |%varavg| %total
---------------------------------------------------------------
Pair    | 0.023111   | 0.023111   | 0.023111   |   0.0 | 75.47
Bond    | 0.0062133  | 0.0062133  | 0.0062133  |   0.0 | 20.29
Neigh   | 0          | 0          | 0          |   0.0 |  0.00
Comm    | 0.00074333 | 0.00074333 | 0.00074333 |   0.0 |  2.43
Output  | 0          | 0          | 0          |   0.0 |  0.00
Modify  | 0          | 0          | 0          |   0.0 |  0.00
Other   |            | 0.0005546  |            |       |  1.81

Nlocal:            371 ave         371 max         371 min
Histogram: 1 0 0 0 0 0 0 0 0 0
Nghost:           2287 ave        2287 max        2287 min
Histogram: 1 0 0 0 0 0 0 0 0 0
Neighs:          22076 ave       22076 max       22076 min
Histogram: 1 0 0 0 0 0 0 0 0 0

Total # of neighbors = 22076
Ave neighs/atom = 59.504043
Ave special neighs/atom = 6.1832884
Neighbor list builds = 0
Dangerous builds = 0

# Obtain new stress tensor

variable tmp equal pe
variable e1 equal ${tmp}
variable e1 equal 8.78193725520862
variable tmp equal press
variable p1 equal ${tmp}
variable p1 equal -1135.81303318108
variable tmp equal pxx
variable pxx1 equal ${tmp}
variable pxx1 equal 2981.84898186679
variable tmp equal pyy
variable pyy1 equal ${tmp}
variable pyy1 equal -926.797391833691
variable tmp equal pzz
variable pzz1 equal ${tmp}
variable pzz1 equal -5462.49068957634
variable tmp equal pxy
variable pxy1 equal ${tmp}
variable pxy1 equal -7845.48411846248
variable tmp equal pxz
variable pxz1 equal ${tmp}
variable pxz1 equal -1160.20205898238
variable tmp equal pyz
variable pyz1 equal ${tmp}
variable pyz1 equal 5080.79658055347

# Compute elastic constant from pressure tensor

variable C1pos equal ${d1}
variable C1pos equal 3.4318389540647
variable C2pos equal ${d2}
variable C2pos equal 21.7737634337752
variable C3pos equal ${d3}
variable C3pos equal 43.739891979578
variable C4pos equal ${d4}
variable C4pos equal -4.58574189275385
variable C5pos equal ${d5}
variable C5pos equal -3.1021348458342
variable C6pos equal ${d6}
variable C6pos equal 15.0492569875082

# Combine positive and negative

variable C1${dir} equal 0.5*(${C1neg}+${C1pos})
variable C16 equal 0.5*(${C1neg}+${C1pos})
variable C16 equal 0.5*(-2.90760484629915+${C1pos})
variable C16 equal 0.5*(-2.90760484629915+3.4318389540647)
variable C2${dir} equal 0.5*(${C2neg}+${C2pos})
variable C26 equal 0.5*(${C2neg}+${C2pos})
variable C26 equal 0.5*(-19.8201715878327+${C2pos})
variable C26 equal 0.5*(-19.8201715878327+21.7737634337752)
variable C3${dir} equal 0.5*(${C3neg}+${C3pos})
variable C36 equal 0.5*(${C3neg}+${C3pos})
variable C36 equal 0.5*(-41.3900226399205+${C3pos})
variable C36 equal 0.5*(-41.3900226399205+43.739891979578)
variable C4${dir} equal 0.5*(${C4neg}+${C4pos})
variable C46 equal 0.5*(${C4neg}+${C4pos})
variable C46 equal 0.5*(1.0844803425385+${C4pos})
variable C46 equal 0.5*(1.0844803425385+-4.58574189275385)
variable C5${dir} equal 0.5*(${C5neg}+${C5pos})
variable C56 equal 0.5*(${C5neg}+${C5pos})
variable C56 equal 0.5*(-0.4628769359919+${C5pos})
variable C56 equal 0.5*(-0.4628769359919+-3.1021348458342)
variable C6${dir} equal 0.5*(${C6neg}+${C6pos})
variable C66 equal 0.5*(${C6neg}+${C6pos})
variable C66 equal 0.5*(20.4628462609789+${C6pos})
variable C66 equal 0.5*(20.4628462609789+15.0492569875082)

# Delete dir to make sure it is not reused

variable dir delete

# Output final values

variable C11all equal ${C11}
variable C11all equal 44.0730746898457
variable C22all equal ${C22}
variable C22all equal 42.2121322755907
variable C33all equal ${C33}
variable C33all equal 61.5462615128138

variable C12all equal 0.5*(${C12}+${C21})
variable C12all equal 0.5*(15.3272512869066+${C21})
variable C12all equal 0.5*(15.3272512869066+14.910288327449)
variable C13all equal 0.5*(${C13}+${C31})
variable C13all equal 0.5*(20.8767588739689+${C31})
variable C13all equal 0.5*(20.8767588739689+20.4432552614408)
variable C23all equal 0.5*(${C23}+${C32})
variable C23all equal 0.5*(18.2598974655098+${C32})
variable C23all equal 0.5*(18.2598974655098+16.3597743020818)

variable C44all equal ${C44}
variable C44all equal 22.1779881726474
variable C55all equal ${C55}
variable C55all equal 19.503288936952
variable C66all equal ${C66}
variable C66all equal 17.7560516242436

variable C14all equal 0.5*(${C14}+${C41})
variable C14all equal 0.5*(-1.92834342239565+${C41})
variable C14all equal 0.5*(-1.92834342239565+-1.6072352744033)
variable C15all equal 0.5*(${C15}+${C51})
variable C15all equal 0.5*(2.39610544666422+${C51})
variable C15all equal 0.5*(2.39610544666422+1.70513430160017)
variable C16all equal 0.5*(${C16}+${C61})
variable C16all equal 0.5*(0.262117053882775+${C61})
variable C16all equal 0.5*(0.262117053882775+-0.971441519340475)

variable C24all equal 0.5*(${C24}+${C42})
variable C24all equal 0.5*(0.1404326528586+${C42})
variable C24all equal 0.5*(0.1404326528586+-0.1330194252303)
variable C25all equal 0.5*(${C25}+${C52})
variable C25all equal 0.5*(4.0712701091667+${C52})
variable C25all equal 0.5*(4.0712701091667+2.21985413369465)
variable C26all equal 0.5*(${C26}+${C62})
variable C26all equal 0.5*(0.976795922971251+${C62})
variable C26all equal 0.5*(0.976795922971251+1.40538852582125)

variable C34all equal 0.5*(${C34}+${C43})
variable C34all equal 0.5*(0.759714732263049+${C43})
variable C34all equal 0.5*(0.759714732263049+2.01371630429048)
variable C35all equal 0.5*(${C35}+${C53})
variable C35all equal 0.5*(4.0494334279047+${C53})
variable C35all equal 0.5*(4.0494334279047+1.2362653959748)
variable C36all equal 0.5*(${C36}+${C63})
variable C36all equal 0.5*(1.17493466982875+${C63})
variable C36all equal 0.5*(1.17493466982875+1.66149013440465)

variable C45all equal 0.5*(${C45}+${C54})
variable C45all equal 0.5*(1.66246169208245+${C54})
variable C45all equal 0.5*(1.66246169208245+1.171978359557)
variable C46all equal 0.5*(${C46}+${C64})
variable C46all equal 0.5*(-1.75063077510768+${C64})
variable C46all equal 0.5*(-1.75063077510768+-2.2047486529424)
variable C56all equal 0.5*(${C56}+${C65})
variable C56all equal 0.5*(-1.78250589091305+${C65})
variable C56all equal 0.5*(-1.78250589091305+-1.9536780937788)

# Average moduli for cubic crystals

variable C11cubic equal (${C11all}+${C22all}+${C33all})/3.0
variable C11cubic equal (44.0730746898457+${C22all}+${C33all})/3.0
variable C11cubic equal (44.0730746898457+42.2121322755907+${C33all})/3.0
variable C11cubic equal (44.0730746898457+42.2121322755907+61.5462615128138)/3.0
variable C12cubic equal (${C12all}+${C13all}+${C23all})/3.0
variable C12cubic equal (15.1187698071778+${C13all}+${C23all})/3.0
variable C12cubic equal (15.1187698071778+20.6600070677048+${C23all})/3.0
variable C12cubic equal (15.1187698071778+20.6600070677048+17.3098358837958)/3.0
variable C44cubic equal (${C44all}+${C55all}+${C66all})/3.0
variable C44cubic equal (22.1779881726474+${C55all}+${C66all})/3.0
variable C44cubic equal (22.1779881726474+19.503288936952+${C66all})/3.0
variable C44cubic equal (22.1779881726474+19.503288936952+17.7560516242436)/3.0

variable bulkmodulus equal (${C11cubic}+2*${C12cubic})/3.0
variable bulkmodulus equal (49.2771561594167+2*${C12cubic})/3.0
variable bulkmodulus equal (49.2771561594167+2*17.6962042528928)/3.0
variable shearmodulus1 equal ${C44cubic}
variable shearmodulus1 equal 19.812442911281
variable shearmodulus2 equal (${C11cubic}-${C12cubic})/2.0
variable shearmodulus2 equal (49.2771561594167-${C12cubic})/2.0
variable shearmodulus2 equal (49.2771561594167-17.6962042528928)/2.0
variable poissonratio equal 1.0/(1.0+${C11cubic}/${C12cubic})
variable poissonratio equal 1.0/(1.0+49.2771561594167/${C12cubic})
variable poissonratio equal 1.0/(1.0+49.2771561594167/17.6962042528928)

print "Elastic Constant 1 1 = ${C11all}"
Elastic Constant 1 1 = 44.0730746898457
print "Elastic Constant 2 2 = ${C22all}"
Elastic Constant 2 2 = 42.2121322755907
print "Elastic Constant 3 3 = ${C33all}"
Elastic Constant 3 3 = 61.5462615128138

print "Elastic Constant 1 2 = ${C12all}"
Elastic Constant 1 2 = 15.1187698071778
print "Elastic Constant 1 3 = ${C13all}"
Elastic Constant 1 3 = 20.6600070677048
print "Elastic Constant 2 3 = ${C23all}"
Elastic Constant 2 3 = 17.3098358837958

print "Elastic Constant 4 4 = ${C44all}"
Elastic Constant 4 4 = 22.1779881726474
print "Elastic Constant 5 5 = ${C55all}"
Elastic Constant 5 5 = 19.503288936952
print "Elastic Constant 6 6 = ${C66all}"
Elastic Constant 6 6 = 17.7560516242436

print "Elastic Constant 1 4 = ${C14all}"
Elastic Constant 1 4 = -1.76778934839948
print "Elastic Constant 1 5 = ${C15all}"
Elastic Constant 1 5 = 2.0506198741322
print "Elastic Constant 1 6 = ${C16all}"
Elastic Constant 1 6 = -0.35466223272885

print "Elastic Constant 2 4 = ${C24all}"
Elastic Constant 2 4 = 0.00370661381414999
print "Elastic Constant 2 5 = ${C25all}"
Elastic Constant 2 5 = 3.14556212143067
print "Elastic Constant 2 6 = ${C26all}"
Elastic Constant 2 6 = 1.19109222439625

print "Elastic Constant 3 4 = ${C34all}"
Elastic Constant 3 4 = 1.38671551827676
print "Elastic Constant 3 5 = ${C35all}"
Elastic Constant 3 5 = 2.64284941193975
print "Elastic Constant 3 6 = ${C36all}"
Elastic Constant 3 6 = 1.4182124021167

print "Elastic Constant 4 5 = ${C45all}"
Elastic Constant 4 5 = 1.41722002581972
print "Elastic Constant 4 6 = ${C46all}"
Elastic Constant 4 6 = -1.97768971402504
print "Elastic Constant 5 6 = ${C56all}"
Elastic Constant 5 6 = -1.86809199234593

print "Bulk Modulus = ${bulkmodulus} ${cunits}"
Bulk Modulus = 28.2231882217341 GPa
print "Shear Modulus 1 = ${shearmodulus1} ${cunits}"
Shear Modulus 1 = 19.812442911281 GPa
print "Shear Modulus 2 = ${shearmodulus2} ${cunits}"
Shear Modulus 2 = 15.7904759532619 GPa
print "Poisson Ratio = ${poissonratio}"
Poisson Ratio = 0.264227509922591

variable rho equal density
print "density (g/cm^3) = ${rho}"
density (g/cm^3) = 1.57317315405139
Total wall time: 0:01:08
