units           real
atom_style      full
boundary        p p p

pair_style      lj/cut 5.000
bond_style      harmonic
angle_style     hybrid fourier cosine/periodic
dihedral_style  harmonic

pair_modify     tail yes mix arithmetic
special_bonds   lj/coul 0.0 0.0 1.0
dielectric      1.0
box tilt        large

The 'box' command has been removed and will be ignored

read_data       ./dat/data.333-RV-32-vasp
Reading data file ...
  triclinic box = (0 0 0) to (15.708732 13.086792 17.524803) with tilt (-8.204242 -0.145779 -2.00561)
WARNING: Triclinic box skew is large. LAMMPS will run inefficiently. (src/domain.cpp:221)
  1 by 1 by 1 MPI processor grid
  reading atoms ...
  331 atoms
  scanning bonds ...
  4 = max bonds/atom
  scanning angles ...
  6 = max angles/atom
  scanning dihedrals ...
  30 = max dihedrals/atom
  triclinic box = (0 0 0) to (15.708732 13.086792 17.524803) with tilt (-8.204242 -0.145779 -2.00561)
WARNING: Triclinic box skew is large. LAMMPS will run inefficiently. (src/domain.cpp:221)
  1 by 1 by 1 MPI processor grid
  reading bonds ...
  336 bonds
  reading angles ...
  626 angles
  reading dihedrals ...
  732 dihedrals
Finding 1-2 1-3 1-4 neighbors ...
  special bond factors lj:    0        0        1       
  special bond factors coul:  0        0        1       
     4 = max # of 1-2 neighbors
    10 = max # of 1-3 neighbors
    14 = max # of special neighbors
  special bonds CPU = 0.000 seconds
  read_data CPU = 0.007 seconds

#### Atom Groupings ####
group           1        id   32 51 79 83 93:95 123 225:227 237:239 267:275 331
24 atoms in group 1
group           fram     id   1:31 33:50 52:78 80:82 84:92 96:122 124:224 228:236 240:266 276:330
307 atoms in group fram
#### END Atom Groupings ####

compute am all property/atom mass
dump        atom_pos all extxyz 100 ./output/333-RV-32-vasp.lammpstrj
dump_modify atom_pos element Si C H O Si C H O mass yes
thermo          1000
thermo_style    custom step temp pe ke etotal press vol density

variable up equal 2e-2
variable cfac equal 1.0e-4
variable cunits string GPa

# Define minimization parameters
variable etol equal 0.0
variable ftol equal 1.0e-10
variable maxiter equal 100000
variable maxeval equal 100000
variable dmax equal 1.0e-2

variable temp equal 300.0
variable thermal_damp index 100.0
variable pressure_damp index 500.0

fix relax all box/relax aniso 0.0 vmax 0.001
unfix relax
minimize ${etol} ${ftol} ${maxiter} ${maxeval}
minimize 0 ${ftol} ${maxiter} ${maxeval}
minimize 0 1e-10 ${maxiter} ${maxeval}
minimize 0 1e-10 100000 ${maxeval}
minimize 0 1e-10 100000 100000
Generated 28 of 28 mixed pair_coeff terms from arithmetic mixing rule
Neighbor list info ...
  update: every = 1 steps, delay = 0 steps, check = yes
  max neighbors/atom: 2000, page size: 100000
  master list distance cutoff = 7
  ghost atom cutoff = 7
  binsize = 3.5, bins = 7 5 6
  1 neighbor lists, perpetual/occasional/extra = 1 0 0
  (1) pair lj/cut, perpetual
      attributes: half, newton on
      pair build: half/bin/newton/tri
      stencil: half/bin/3d/tri
      bin: standard
WARNING: Inconsistent image flags
For more information see https://docs.lammps.org/err0027 (src/domain.cpp:1052)
Per MPI rank memory allocation (min/avg/max) = 19.51 | 19.51 | 19.51 Mbytes
   Step          Temp          PotEng         KinEng         TotEng         Press          Volume        Density    
         0   0              569.62796      0              569.62796      54553.79       3602.6948      1.4003667    
        51   0             -202.08425      0             -202.08425      8550.0185      3602.6948      1.4003667    
Loop time of 0.0331277 on 1 procs for 51 steps with 331 atoms

99.8% CPU use with 1 MPI tasks x 1 OpenMP threads

Minimization stats:
  Stopping criterion = linesearch alpha is zero
  Energy initial, next-to-last, final = 
      569.627957099336  -202.084250668905  -202.084250668905
  Force two-norm initial, final = 741.03919 25.813478
  Force max component initial, final = 85.701201 4.1665862
  Final line search alpha, max atom move = 1.12838e-11 4.7014927e-11
  Iterations, force evaluations = 51 158

MPI task timing breakdown:
Section |  min time  |  avg time  |  max time  |%varavg| %total
---------------------------------------------------------------
Pair    | 0.023661   | 0.023661   | 0.023661   |   0.0 | 71.42
Bond    | 0.005431   | 0.005431   | 0.005431   |   0.0 | 16.39
Neigh   | 0.002241   | 0.002241   | 0.002241   |   0.0 |  6.76
Comm    | 0.0007731  | 0.0007731  | 0.0007731  |   0.0 |  2.33
Output  | 0          | 0          | 0          |   0.0 |  0.00
Modify  | 0          | 0          | 0          |   0.0 |  0.00
Other   |            | 0.001022   |            |       |  3.09

Nlocal:            331 ave         331 max         331 min
Histogram: 1 0 0 0 0 0 0 0 0 0
Nghost:           2219 ave        2219 max        2219 min
Histogram: 1 0 0 0 0 0 0 0 0 0
Neighs:          20721 ave       20721 max       20721 min
Histogram: 1 0 0 0 0 0 0 0 0 0

Total # of neighbors = 20721
Ave neighs/atom = 62.601208
Ave special neighs/atom = 5.8126888
Neighbor list builds = 1
Dangerous builds = 0

# Generating the full routine as described in the paper for UFF
fix nvt_relax   all nvt temp 300 300 ${thermal_damp}
fix nvt_relax   all nvt temp 300 300 100.0
run 100000      # 100 picoseconds
Generated 28 of 28 mixed pair_coeff terms from arithmetic mixing rule
WARNING: Inconsistent image flags
For more information see https://docs.lammps.org/err0027 (src/domain.cpp:1052)
Per MPI rank memory allocation (min/avg/max) = 19.45 | 19.45 | 19.45 Mbytes
   Step          Temp          PotEng         KinEng         TotEng         Press          Volume        Density    
        51   0             -202.08425      0             -202.08425      8550.0185      3602.6948      1.4003667    
      1000   258.90585     -0.53917338     254.67722      254.13805      21399.943      3602.6948      1.4003667    
      2000   297.84887      48.541285      292.98419      341.52548      17678.401      3602.6948      1.4003667    
      3000   278.931        27.378676      274.3753       301.75398      10585.747      3602.6948      1.4003667    
      4000   299.11093     -4.1214142      294.22564      290.10423      15021.435      3602.6948      1.4003667    
      5000   294.40143      6.9175472      289.59306      296.51061      5940.0342      3602.6948      1.4003667    
      6000   304.33886     -38.052297      299.36819      261.31589      7871.6299      3602.6948      1.4003667    
      7000   311.55911      1.8724393      306.47051      308.34295      15071.316      3602.6948      1.4003667    
      8000   298.81342     -26.353446      293.933        267.57955      7230.3729      3602.6948      1.4003667    
      9000   308.39121     -10.645138      303.35435      292.70922      10675.458      3602.6948      1.4003667    
     10000   307.90549     -25.738865      302.87656      277.1377       6561.5188      3602.6948      1.4003667    
     11000   294.46567      5.6677144      289.65626      295.32397      10187.243      3602.6948      1.4003667    
     12000   287.02477     -22.423377      282.33689      259.91351      4304.9287      3602.6948      1.4003667    
     13000   303.88735     -3.636217       298.92405      295.28783      9932.7654      3602.6948      1.4003667    
     14000   316.92885     -9.1092156      311.75256      302.64334      9291.8025      3602.6948      1.4003667    
     15000   297.31648     -5.1093493      292.46051      287.35116      11725.314      3602.6948      1.4003667    
     16000   303.43254      9.1882704      298.47667      307.66494      9572.7644      3602.6948      1.4003667    
     17000   291.78447     -10.568484      287.01884      276.45036      7801.0078      3602.6948      1.4003667    
     18000   290.78385      8.2532358      286.03457      294.28781      10149.076      3602.6948      1.4003667    
     19000   294.46299     -36.72316       289.65362      252.93046      11873.136      3602.6948      1.4003667    
     20000   301.02375     -0.053633085    296.10722      296.05359      3225.5127      3602.6948      1.4003667    
     21000   302.92363      13.74421       297.97608      311.72029      11210.934      3602.6948      1.4003667    
     22000   287.10281     -0.99712597     282.41365      281.41652      10679.268      3602.6948      1.4003667    
     23000   284.6609      -23.242821      280.01162      256.7688       9352.3146      3602.6948      1.4003667    
     24000   317.00333      7.4784274      311.82581      319.30424      6400.7619      3602.6948      1.4003667    
     25000   271.81385      11.461115      267.3744       278.83551      11359.193      3602.6948      1.4003667    
     26000   312.25949      4.8956039      307.15945      312.05506      13893.933      3602.6948      1.4003667    
     27000   305.16647      5.2276937      300.18228      305.40997      11450.779      3602.6948      1.4003667    
     28000   290.08521     -19.921751      285.34734      265.42559      13376.842      3602.6948      1.4003667    
     29000   317.71206     -20.684505      312.52297      291.83846      10016.563      3602.6948      1.4003667    
     30000   297.43533     -24.201226      292.57741      268.37618      7694.7034      3602.6948      1.4003667    
     31000   289.92843      16.166371      285.19312      301.35949      5212.3568      3602.6948      1.4003667    
     32000   314.95733     -6.4338406      309.81323      303.37939      8999.5446      3602.6948      1.4003667    
     33000   310.8567      -27.945929      305.77957      277.83364      7566.1825      3602.6948      1.4003667    
     34000   308.94611     -14.314769      303.90019      289.58542      10287.748      3602.6948      1.4003667    
     35000   282.15002      3.4779626      277.54175      281.01971      8644.3525      3602.6948      1.4003667    
     36000   313.72651     -10.520474      308.60252      298.08204      4157.817       3602.6948      1.4003667    
     37000   309.21885     -6.1893293      304.16848      297.97915      9619.5993      3602.6948      1.4003667    
     38000   282.35979     -5.6889795      277.74809      272.05911      8349.4567      3602.6948      1.4003667    
     39000   312.37617      0.7878741      307.27423      308.0621       10735.776      3602.6948      1.4003667    
     40000   296.72401     -12.574092      291.87771      279.30362      4073.2684      3602.6948      1.4003667    
     41000   291.85343      6.0330071      287.08669      293.11969      6947.8141      3602.6948      1.4003667    
     42000   294.39959     -16.060553      289.59125      273.5307       10589.758      3602.6948      1.4003667    
     43000   308.00152     -9.0882337      302.97103      293.88279      8439.7612      3602.6948      1.4003667    
     44000   288.19582     -10.205886      283.4888       273.28292      14095.982      3602.6948      1.4003667    
     45000   305.61668     -19.965913      300.62514      280.65923      5171.4468      3602.6948      1.4003667    
     46000   335.57846      0.53644902     330.09757      330.63402      5495.1318      3602.6948      1.4003667    
     47000   308.89696     -10.883299      303.85185      292.96855      11499.37       3602.6948      1.4003667    
     48000   275.3443      -12.691894      270.84718      258.15529      7439.4419      3602.6948      1.4003667    
     49000   309.04518     -0.28588889     303.99765      303.71176      9948.1602      3602.6948      1.4003667    
     50000   272.78327     -11.340373      268.32799      256.98761      6324.4491      3602.6948      1.4003667    
     51000   320.63102     -12.480285      315.39426      302.91397      9899.4431      3602.6948      1.4003667    
     52000   317.27891      8.6085303      312.09689      320.70542      2830.9786      3602.6948      1.4003667    
     53000   309.06171     -19.66354       304.0139       284.35036      12372.784      3602.6948      1.4003667    
     54000   296.34869      3.5326334      291.50852      295.04116      10297.88       3602.6948      1.4003667    
     55000   297.35388     -31.212238      292.49729      261.28505      11781.547      3602.6948      1.4003667    
     56000   314.597       -18.619255      309.45879      290.83954      12277.218      3602.6948      1.4003667    
     57000   311.48097     -13.463097      306.39365      292.93056      7735.539       3602.6948      1.4003667    
     58000   305.63596     -5.9616761      300.64411      294.68243      12110.605      3602.6948      1.4003667    
     59000   279.78837     -18.868231      275.21867      256.35044      10407.243      3602.6948      1.4003667    
     60000   267.30894      5.9394134      262.94307      268.88249      12750.707      3602.6948      1.4003667    
     61000   312.04554     -3.1993914      306.949        303.7496       10669.644      3602.6948      1.4003667    
     62000   287.09196     -3.0751151      282.40298      279.32786      10960.947      3602.6948      1.4003667    
     63000   284.45629     -25.017711      279.81036      254.79264      10706.859      3602.6948      1.4003667    
     64000   300.66261     -2.3917653      295.75198      293.36021      11352.017      3602.6948      1.4003667    
     65000   295.61644     -30.100364      290.78823      260.68786      1216.9403      3602.6948      1.4003667    
     66000   298.03292      11.51613       293.16524      304.68137      10411.614      3602.6948      1.4003667    
     67000   292.82969     -22.857803      288.047        265.18919      6686.2057      3602.6948      1.4003667    
     68000   308.84198     -7.5188026      303.79776      296.27896      10622.936      3602.6948      1.4003667    
     69000   281.56471     -10.025753      276.966        266.94025      5328.2553      3602.6948      1.4003667    
     70000   311.61394     -13.898025      306.52445      292.62643      5726.0351      3602.6948      1.4003667    
     71000   324.67651     -26.60266       319.37368      292.77102      17078.666      3602.6948      1.4003667    
     72000   290.42077     -24.073517      285.67742      261.6039       9460.9943      3602.6948      1.4003667    
     73000   302.99307     -10.548194      298.04438      287.49618      10409.895      3602.6948      1.4003667    
     74000   274.48717     -15.161082      270.00405      254.84297      8084.1104      3602.6948      1.4003667    
     75000   288.47278     -1.2123939      283.76125      282.54885      7808.1067      3602.6948      1.4003667    
     76000   303.07779      14.780932      298.12772      312.90865      7799.8098      3602.6948      1.4003667    
     77000   284.731       -12.21016       280.08058      267.87042      958.47605      3602.6948      1.4003667    
     78000   278.85507      16.198585      274.30062      290.4992       10764.258      3602.6948      1.4003667    
     79000   296.47145     -19.92809       291.62927      271.70118      9292.8171      3602.6948      1.4003667    
     80000   299.67203      6.6722672      294.77758      301.44985      7810.8841      3602.6948      1.4003667    
     81000   272.8756      -6.9191397      268.41881      261.49967      6867.8271      3602.6948      1.4003667    
     82000   306.62614     -8.313786       301.61812      293.30433      9905.1135      3602.6948      1.4003667    
     83000   298.08332     -20.958092      293.21482      272.25673      9497.3741      3602.6948      1.4003667    
     84000   292.25583      0.59775187     287.4825       288.08026      9605.7714      3602.6948      1.4003667    
     85000   297.17717      4.7872648      292.32347      297.11073      5386.183       3602.6948      1.4003667    
     86000   281.62252     -12.695027      277.02286      264.32784      12476.319      3602.6948      1.4003667    
     87000   301.7062       15.339294      296.77853      312.11782      6932.4619      3602.6948      1.4003667    
     88000   307.81373     -2.3631662      302.78631      300.42314      12211.44       3602.6948      1.4003667    
     89000   294.11276     -19.352025      289.30911      269.95709      8344.4454      3602.6948      1.4003667    
     90000   295.57137     -1.7363831      290.7439       289.00752      8550.8277      3602.6948      1.4003667    
     91000   274.01555      2.1884742      269.54014      271.72862      15700.671      3602.6948      1.4003667    
     92000   307.59271      0.34060745     302.56889      302.9095       11704.288      3602.6948      1.4003667    
     93000   282.60005     -3.9018192      277.98444      274.08262      12593.964      3602.6948      1.4003667    
     94000   286.99855     -14.225287      282.3111       268.08581      9076.4116      3602.6948      1.4003667    
     95000   308.64999      3.4946443      303.60891      307.10355      6310.2209      3602.6948      1.4003667    
     96000   312.44832     -4.8429924      307.3452       302.50221      10644.72       3602.6948      1.4003667    
     97000   290.60348     -3.519819       285.85715      282.33733      6795.5031      3602.6948      1.4003667    
     98000   300.82256      5.1164907      295.90932      301.02581      5220.0384      3602.6948      1.4003667    
     99000   291.46354     -9.8761727      286.70316      276.82698      7084.3488      3602.6948      1.4003667    
    100000   311.47374     -15.334663      306.38654      291.05187      12091.943      3602.6948      1.4003667    
    100051   311.70663     -5.4315737      306.61562      301.18405      10770.461      3602.6948      1.4003667    
Loop time of 20.8679 on 1 procs for 100000 steps with 331 atoms

Performance: 414.033 ns/day, 0.058 hours/ns, 4792.045 timesteps/s, 1.586 Matom-step/s
99.7% CPU use with 1 MPI tasks x 1 OpenMP threads

MPI task timing breakdown:
Section |  min time  |  avg time  |  max time  |%varavg| %total
---------------------------------------------------------------
Pair    | 12.016     | 12.016     | 12.016     |   0.0 | 57.58
Bond    | 2.7847     | 2.7847     | 2.7847     |   0.0 | 13.34
Neigh   | 4.6867     | 4.6867     | 4.6867     |   0.0 | 22.46
Comm    | 0.51635    | 0.51635    | 0.51635    |   0.0 |  2.47
Output  | 0.4525     | 0.4525     | 0.4525     |   0.0 |  2.17
Modify  | 0.29731    | 0.29731    | 0.29731    |   0.0 |  1.42
Other   |            | 0.1147     |            |       |  0.55

Nlocal:            331 ave         331 max         331 min
Histogram: 1 0 0 0 0 0 0 0 0 0
Nghost:           2205 ave        2205 max        2205 min
Histogram: 1 0 0 0 0 0 0 0 0 0
Neighs:          20739 ave       20739 max       20739 min
Histogram: 1 0 0 0 0 0 0 0 0 0

Total # of neighbors = 20739
Ave neighs/atom = 62.655589
Ave special neighs/atom = 5.8126888
Neighbor list builds = 2372
Dangerous builds = 0
unfix           nvt_relax

fix npt_relax   all npt temp 300 300 ${thermal_damp} iso 0 0 ${pressure_damp}
fix npt_relax   all npt temp 300 300 100.0 iso 0 0 ${pressure_damp}
fix npt_relax   all npt temp 300 300 100.0 iso 0 0 500.0
run 100000      # 100 picoseconds
Generated 28 of 28 mixed pair_coeff terms from arithmetic mixing rule
WARNING: Inconsistent image flags
For more information see https://docs.lammps.org/err0027 (src/domain.cpp:1052)
Per MPI rank memory allocation (min/avg/max) = 19.46 | 19.46 | 19.46 Mbytes
   Step          Temp          PotEng         KinEng         TotEng         Press          Volume        Density    
    100051   311.70663     -5.4315737      306.61562      301.18405      10770.461      3602.6948      1.4003667    
    101000   277.58801     -21.772198      273.05425      251.28206      3919.0212      3857.8614      1.3077437    
    102000   304.50657     -18.535422      299.53316      280.99774      1190.1767      3972.118       1.2701269    
    103000   302.74759     -2.6600065      297.80291      295.1429       1329.7943      3948.5363      1.2777125    
    104000   293.27219     -9.2214995      288.48227      279.26077     -2593.4569      4054.1512      1.2444267    
    105000   318.76398      28.292508      313.55771      341.85022     -1485.1047      4027.1744      1.2527627    
    106000   283.40318      11.924525      278.77444      290.69897     -4586.3431      3899.2578      1.2938601    
    107000   306.36591     -6.0133163      301.36213      295.34882     -1324.3342      3905.2479      1.2918755    
    108000   286.45948     -16.344148      281.78083      265.43668      261.41125      3929.8203      1.2837976    
    109000   294.75913     -9.3514214      289.94492      280.5935       474.09828      3999.979       1.2612801    
    110000   294.43934      13.33973       289.63035      302.97008     -3446.947       3916.4356      1.2881851    
    111000   295.64696     -6.5835097      290.81825      284.23474     -1436.2129      3931.1748      1.2833553    
    112000   274.58605     -23.81686       270.10132      246.28446     -1630.042       3984.1679      1.2662855    
    113000   289.39045      5.5901527      284.66393      290.25408     -2612.6896      3953.3614      1.276153     
    114000   302.34505      1.8516788      297.40695      299.25863     -3155.1871      3980.9981      1.2672937    
    115000   275.57768     -19.417246      271.07675      251.65951      4274.9734      3954.2816      1.275856     
    116000   296.18851      6.2147353      291.35096      297.56569     -1030.4116      3964.2373      1.2726519    
    117000   321.15991      2.1255518      315.91451      318.04006     -178.11098      3970.6417      1.2705991    
    118000   295.39327     -3.958          290.56871      286.61071     -2101.6751      3962.9468      1.2730663    
    119000   318.91759     -5.2558417      313.70881      308.45297      1057.3733      3862.699       1.3061059    
    120000   277.56158     -3.0926662      273.02825      269.93559     -2794.6915      3976.4264      1.2687508    
    121000   314.8783      -19.112164      309.73549      290.62333      173.37087      3941.0388      1.2801432    
    122000   287.45944     -12.439269      282.76446      270.32519     -2327.6621      4038.2803      1.2493174    
    123000   303.18301     -1.1108321      298.23122      297.12038      3186.7947      3983.4093      1.2665266    
    124000   271.29117      2.69249        266.86026      269.55275      3011.1487      3973.3955      1.2697186    
    125000   315.46777     -13.015977      310.31533      297.29935      2445.6831      3938.396       1.2810022    
    126000   293.13071     -17.560737      288.3431       270.78236      3294.0796      3910.7504      1.2900578    
    127000   309.7264       6.3831047      304.66773      311.05084     -51.219644      4024.5572      1.2535774    
    128000   324.66818      3.9631119      319.36548      323.32859     -2764.8382      3924.2132      1.285632     
    129000   295.73136     -12.578427      290.90127      278.32285      621.34707      3955.4362      1.2754836    
    130000   298.7608       16.331175      293.88124      310.21241      760.01115      3942.5137      1.2796643    
    131000   290.55095     -25.66977       285.80548      260.13571      1383.5631      4008.0702      1.2587339    
    132000   312.66811     -7.8214202      307.5614       299.73998     -2595.4498      3967.4316      1.2716272    
    133000   320.82722     -2.6630879      315.58725      312.92416     -1861.9124      3961.3206      1.2735889    
    134000   301.5315      -14.265049      296.60669      282.34164     -4610.054       3967.1151      1.2717287    
    135000   308.12103      3.1510191      303.08859      306.2396       2281.4554      3909.7975      1.2903722    
    136000   297.60218     -3.691542       292.74154      289.05        -1133.2934      4089.8211      1.2335733    
    137000   310.8079       5.4337755      305.73158      311.16535      1597.9677      3955.651       1.2754143    
    138000   292.76751     -14.850647      287.98583      273.13519     -557.45317      3913.1162      1.2892778    
    139000   294.7216       5.1886957      289.90801      295.0967       250.92199      3976.3084      1.2687884    
    140000   290.92903     -19.474752      286.17737      266.70262     -6345.7538      3982.9984      1.2666573    
    141000   319.76498     -17.734889      314.54236      296.80747      5125.8594      3926.4445      1.2849014    
    142000   276.65578     -11.444791      272.13725      260.69246      975.11719      3899.4519      1.2937957    
    143000   295.89769      0.7215082      291.06488      291.78639      2364.3233      3960.8856      1.2737288    
    144000   287.97938      3.5568293      283.2759       286.83273      702.41599      3901.8945      1.2929857    
    145000   286.47979     -10.382215      281.8008       271.41859     -3344.4523      3905.2001      1.2918913    
    146000   300.78943     -11.732213      295.87673      284.14452     -3302.8514      3937.1936      1.2813934    
    147000   306.07048      11.47432       301.07153      312.54585     -490.14195      3950.8745      1.2769563    
    148000   286.74172     -0.67254898     282.05846      281.38591      3444.4585      3970.2641      1.27072      
    149000   301.89215     -12.90396       296.96144      284.05748     -125.66112      3923.7406      1.2857868    
    150000   279.60741     -18.01174       275.04067      257.02893      160.97857      3965.4926      1.272249     
    151000   290.516        10.922875      285.77109      296.69397     -288.11289      3963.6687      1.2728344    
    152000   285.81439     -2.2172218      281.14627      278.92905      66.782388      4020.8544      1.2547318    
    153000   285.96987      5.2125417      281.29921      286.51176     -29.881906      3905.5004      1.291792     
    154000   278.05362      1.2306088      273.51226      274.74287     -2364.1475      3969.5431      1.2709508    
    155000   285.15372      0.17659865     280.49639      280.67299      46.923458      3964.3638      1.2726113    
    156000   305.49739      5.5374527      300.5078       306.04525      790.24254      3877.555       1.3011019    
    157000   278.42406     -37.214477      273.87664      236.66217      1706.537       3932.8669      1.2828031    
    158000   294.18052      23.575584      289.37576      312.95135     -1307.7412      3947.5968      1.2780166    
    159000   297.77407     -5.8439608      292.91062      287.06666      2330.1643      3899.4147      1.293808     
    160000   292.12675      9.6034345      287.35554      296.95897      4224.6828      3931.0682      1.2833901    
    161000   308.56069     -23.274231      303.52106      280.24683      2541.1483      3972.5771      1.2699801    
    162000   296.91779     -14.42609       292.06832      277.64223     -2058.3122      3950.2725      1.2771509    
    163000   277.03791      2.7598785      272.51314      275.27302      652.71566      3981.0244      1.2672854    
    164000   299.63779      8.6467485      294.7439       303.39065      1431.6766      3932.2358      1.283009     
    165000   301.4917      -16.137455      296.56753      280.43007     -7837.3489      3936.9691      1.2814665    
    166000   304.55372      0.44528905     299.57954      300.02483     -4991.3302      3971.0879      1.2704564    
    167000   293.02895     -34.552763      288.243        253.69023     -773.05521      3924.0033      1.2857008    
    168000   322.92335     -23.662694      317.64915      293.98645      7.6588501      3855.0471      1.3086984    
    169000   285.77537     -28.231304      281.10789      252.87658     -4850.4088      3953.2253      1.2761969    
    170000   292.23525     -14.312884      287.46226      273.14938      915.54306      3968.8578      1.2711703    
    171000   300.87436     -31.869354      295.96028      264.09092     -3041.2291      3914.2451      1.288906     
    172000   287.27149      12.180975      282.57958      294.76056     -339.19255      3965.8955      1.2721197    
    173000   295.13301     -21.335481      290.3127       268.97722      3452.6277      3900.6542      1.2933969    
    174000   334.51167     -2.8926329      329.0482       326.15557      160.16835      3924.8149      1.2854349    
    175000   330.71189     -24.479499      325.31048      300.83098     -1491.1982      3893.8348      1.2956621    
    176000   322.46209     -16.808755      317.19542      300.38667     -1404.2482      3927.0166      1.2847142    
    177000   297.8693      -12.168888      293.0043       280.83541     -1037.9674      3920.3055      1.2869135    
    178000   294.19677     -4.2313645      289.39175      285.16038      4498.3233      3859.4751      1.307197     
    179000   294.10607     -14.154365      289.30253      275.14816      3045.597       3890.2078      1.2968701    
    180000   324.80618     -20.914463      319.50122      298.58676      565.6974       3979.5153      1.267766     
    181000   287.51403     -20.754817      282.81815      262.06334      1881.9052      3908.2062      1.2908976    
    182000   315.82225     -12.591086      310.66402      298.07294     -2187.8712      3947.6146      1.2780108    
    183000   296.06722     -33.278664      291.23164      257.95298      1177.6437      3889.9155      1.2969675    
    184000   292.77087     -0.030556731    287.98914      287.95858     -473.17224      3914.4839      1.2888274    
    185000   284.82122     -23.468481      280.16932      256.70084      1355.2741      3930.6816      1.2835163    
    186000   301.16207     -1.0934542      296.24329      295.14984      2714.2776      3970.306       1.2707066    
    187000   321.71412     -32.858023      316.45966      283.60164      2629.5582      3919.4755      1.287186     
    188000   288.50496     -32.340288      283.7929       251.45262     -2405.6367      3944.6073      1.2789851    
    189000   297.74788     -3.6334607      292.88486      289.2514      -1078.089       3926.9824      1.2847254    
    190000   298.73598     -49.015248      293.85682      244.84157     -1054.4958      3921.1005      1.2866526    
    191000   289.62729      0.61835244     284.8969       285.51525     -5793.8289      3996.8543      1.2622662    
    192000   301.22827     -19.989857      296.3084       276.31855      1300.9555      3909.1193      1.2905961    
    193000   320.30973      3.6258661      315.07822      318.70408      5845.4578      3917.4459      1.2878529    
    194000   281.58485     -11.427794      276.98581      265.55802      1679.0051      3959.8162      1.2740728    
    195000   312.94693     -24.485423      307.83567      283.35024     -1862.4849      4006.9842      1.2590751    
    196000   300.80759      1.5155103      295.8946       297.41011      6463.2543      3984.3472      1.2662285    
    197000   314.34643     -4.2653365      309.21231      304.94697      1421.5583      3890.0695      1.2969162    
    198000   307.27187      3.6939675      302.25329      305.94726      1367.0417      4055.3558      1.2440571    
    199000   291.31152     -18.361346      286.55362      268.19227     -8234.821       3936.3017      1.2816838    
    200000   302.41501     -15.400219      297.47576      282.07554      3882.0263      3963.7937      1.2727943    
    200051   293.18758     -3.6031032      288.39904      284.79593     -3176.8975      3967.8047      1.2715076    
Loop time of 22.3122 on 1 procs for 100000 steps with 331 atoms

Performance: 387.232 ns/day, 0.062 hours/ns, 4481.846 timesteps/s, 1.483 Matom-step/s
99.8% CPU use with 1 MPI tasks x 1 OpenMP threads

MPI task timing breakdown:
Section |  min time  |  avg time  |  max time  |%varavg| %total
---------------------------------------------------------------
Pair    | 11.615     | 11.615     | 11.615     |   0.0 | 52.06
Bond    | 3.8775     | 3.8775     | 3.8775     |   0.0 | 17.38
Neigh   | 4.9742     | 4.9742     | 4.9742     |   0.0 | 22.29
Comm    | 0.52841    | 0.52841    | 0.52841    |   0.0 |  2.37
Output  | 0.47637    | 0.47637    | 0.47637    |   0.0 |  2.14
Modify  | 0.7082     | 0.7082     | 0.7082     |   0.0 |  3.17
Other   |            | 0.1323     |            |       |  0.59

Nlocal:            331 ave         331 max         331 min
Histogram: 1 0 0 0 0 0 0 0 0 0
Nghost:           2147 ave        2147 max        2147 min
Histogram: 1 0 0 0 0 0 0 0 0 0
Neighs:          18640 ave       18640 max       18640 min
Histogram: 1 0 0 0 0 0 0 0 0 0

Total # of neighbors = 18640
Ave neighs/atom = 56.314199
Ave special neighs/atom = 5.8126888
Neighbor list builds = 2665
Dangerous builds = 0
unfix           npt_relax

# fix nvt_heat    all nvt temp 300 1000 ${thermal_damp}
# run 100000      # 100 picoseconds
# unfix           nvt_heat
#
# fix npt_heat    all npt temp 1000 1000 ${thermal_damp} iso 0 0 ${pressure_damp}
# run 100000      # 100 picoseconds
# unfix           npt_heat
#
# fix cooling_npt all npt temp 1000 300 ${thermal_damp} iso 0 0 ${pressure_damp}
# run 700000      # 700 picoseconds
# unfix           cooling_npt
#
# fix npt_final   all npt temp 300 300 ${thermal_damp} iso 0 0 100
# run 100000      # 100 picoseconds
# unfix           npt_final

# density computation
variable rho equal density
fix integrate  all npt temp ${temp} ${temp} ${thermal_damp} iso 0 0 ${pressure_damp}
fix integrate  all npt temp 300 ${temp} ${thermal_damp} iso 0 0 ${pressure_damp}
fix integrate  all npt temp 300 300 ${thermal_damp} iso 0 0 ${pressure_damp}
fix integrate  all npt temp 300 300 100.0 iso 0 0 ${pressure_damp}
fix integrate  all npt temp 300 300 100.0 iso 0 0 500.0
fix rho50k all ave/time 10 5000 50000 v_rho mode scalar ave one
run 50000
Generated 28 of 28 mixed pair_coeff terms from arithmetic mixing rule
WARNING: Inconsistent image flags
For more information see https://docs.lammps.org/err0027 (src/domain.cpp:1052)
Per MPI rank memory allocation (min/avg/max) = 19.46 | 19.46 | 19.46 Mbytes
   Step          Temp          PotEng         KinEng         TotEng         Press          Volume        Density    
    200051   293.18758     -3.6031032      288.39904      284.79593     -3176.8975      3967.8047      1.2715076    
    201000   295.39576     -23.909372      290.57116      266.66179      7056.6491      3860.1078      1.3069827    
    202000   293.8286       4.5765415      289.02959      293.60613     -1371.7765      3933.6123      1.2825601    
    203000   313.28536     -25.445872      308.16857      282.7227      -8496.0923      3924.6494      1.2854891    
    204000   301.3306      -9.414725       296.40906      286.99433      1548.9211      3931.3683      1.2832921    
    205000   319.36655     -20.811046      314.15043      293.33939     -723.81533      4003.1438      1.260283     
    206000   290.26877     -2.1630864      285.5279       283.36481     -1725.3424      3913.7474      1.2890699    
    207000   299.39248     -7.3049338      294.5026       287.19766     -466.34831      4046.1909      1.2468749    
    208000   302.251       -30.43729       297.31443      266.87714      2691.9846      3874.3993      1.3021616    
    209000   294.86936      1.2491284      290.05336      291.30248     -1520.5121      3999.8154      1.2613317    
    210000   311.88172      21.486404      306.78785      328.27426      354.81745      4022.4561      1.2542322    
    211000   301.8715      -0.63379857     296.94113      296.30733      2201.7226      3874.4294      1.3021515    
    212000   297.43238     -13.777626      292.57451      278.79689      1358.0978      3941.8684      1.2798738    
    213000   300.93293     -12.247717      296.01789      283.77017      906.79904      3897.6485      1.2943943    
    214000   295.39154      1.6096561      290.56701      292.17666     -567.54489      3911.7196      1.2897381    
    215000   307.74092     -13.124653      302.71469      289.59003      666.76792      3951.7069      1.2766873    
    216000   312.67426     -16.488943      307.56745      291.0785       4509.0227      4041.0316      1.2484668    
    217000   284.42464     -23.517662      279.77922      256.26156     -2937.5025      4054.8215      1.244221     
    218000   290.43258     -5.5686592      285.68903      280.12037     -1676.3788      4018.9368      1.2553305    
    219000   286.96924      4.212012       282.28226      286.49427     -1194.3665      3978.3151      1.2681484    
    220000   301.88522     -17.766091      296.95462      279.18853     -3304.585       3961.9381      1.2733904    
    221000   307.19808      3.587211       302.18071      305.76792     -995.12692      3998.4863      1.261751     
    222000   299.51329     -22.743427      294.62144      271.87801     -1807.314       3888.3593      1.2974866    
    223000   314.16032      7.5885614      309.02924      316.6178      -1714.25        3910.6786      1.2900815    
    224000   293.63237     -8.6374921      288.83657      280.19908     -1632.5443      3944.1069      1.2791474    
    225000   280.15947      11.608288      275.58372      287.19201     -2554.2389      3993.5215      1.2633196    
    226000   306.0645      -11.427065      301.06564      289.63858      1730.6201      3974.0901      1.2694966    
    227000   319.90695      33.390869      314.68202      348.07288      2369.032       4035.7383      1.2501044    
    228000   293.26688     -14.868387      288.47704      273.60866     -2613.1535      3919.5213      1.287171     
    229000   307.39249     -11.404483      302.37194      290.96746     -7956.3003      3988.872       1.2647922    
    230000   296.29585     -7.0545384      291.45655      284.40201      757.54997      3941.2172      1.2800852    
    231000   298.52924      14.549649      293.65346      308.20311     -2089.2438      3919.1982      1.2872771    
    232000   296.93878     -26.679046      292.08897      265.40993     -2770.061       3890.7901      1.296676     
    233000   282.25413     -3.2844973      277.64417      274.35967     -3520.2773      4006.5231      1.25922      
    234000   310.41511      8.5023506      305.3452       313.84755      461.60637      4000.4029      1.2611465    
    235000   286.72246     -23.992447      282.03951      258.04706     -123.99763      3912.9722      1.2893253    
    236000   300.59812      9.4020161      295.68855      305.09056      1685.6198      3850.6574      1.3101903    
    237000   324.2108      -8.8240216      318.91557      310.09155      7293.9154      3896.5474      1.2947601    
    238000   288.6893      -11.637155      283.97423      272.33708      1985.062       3926.9161      1.2847471    
    239000   301.21663      36.884123      296.29695      333.18107     -1423.9243      3959.8667      1.2740565    
    240000   287.97228      0.80041243     283.26892      284.06933      2958.7394      3935.1718      1.2820518    
    241000   300.32161      1.7243491      295.41656      297.14091      2962.9063      3926.3201      1.2849421    
    242000   279.22494     -25.293779      274.66445      249.37067      555.09675      3944.2174      1.2791116    
    243000   314.72904     -12.069484      309.58867      297.51919      5331.9389      3929.1059      1.2840311    
    244000   333.71392      1.4369305      328.26348      329.70041     -791.26361      4001.7318      1.2607277    
    245000   298.2781      -18.726693      293.40642      274.67973      2789.6357      3874.8858      1.3019981    
    246000   310.24762      9.467593       305.18045      314.64804      14.009549      3965.6976      1.2721832    
    247000   271.37327      4.7129817      266.94101      271.65399      6923.8655      3899.9478      1.2936312    
    248000   308.44468     -5.3882772      303.40696      298.01868     -7896.925       3945.4266      1.2787195    
    249000   314.66446     -14.143215      309.52515      295.38193     -3135.031       3888.4062      1.2974709    
    250000   299.33022     -0.66446269     294.44135      293.77689     -4265.2843      3918.1787      1.287612     
    250051   297.91807     -15.813544      293.05227      277.23873     -1748.04        3916.0014      1.2883279    
Loop time of 11.3244 on 1 procs for 50000 steps with 331 atoms

Performance: 381.478 ns/day, 0.063 hours/ns, 4415.252 timesteps/s, 1.461 Matom-step/s
99.9% CPU use with 1 MPI tasks x 1 OpenMP threads

MPI task timing breakdown:
Section |  min time  |  avg time  |  max time  |%varavg| %total
---------------------------------------------------------------
Pair    | 5.8903     | 5.8903     | 5.8903     |   0.0 | 52.01
Bond    | 1.9643     | 1.9643     | 1.9643     |   0.0 | 17.35
Neigh   | 2.529      | 2.529      | 2.529      |   0.0 | 22.33
Comm    | 0.26874    | 0.26874    | 0.26874    |   0.0 |  2.37
Output  | 0.24192    | 0.24192    | 0.24192    |   0.0 |  2.14
Modify  | 0.36276    | 0.36276    | 0.36276    |   0.0 |  3.20
Other   |            | 0.06736    |            |       |  0.59

Nlocal:            331 ave         331 max         331 min
Histogram: 1 0 0 0 0 0 0 0 0 0
Nghost:           2117 ave        2117 max        2117 min
Histogram: 1 0 0 0 0 0 0 0 0 0
Neighs:          19024 ave       19024 max       19024 min
Histogram: 1 0 0 0 0 0 0 0 0 0

Total # of neighbors = 19024
Ave neighs/atom = 57.47432
Ave special neighs/atom = 5.8126888
Neighbor list builds = 1332
Dangerous builds = 0
unfix integrate
unfix rho50k

# Compute initial state
fix 3 all box/relax  aniso 0.0
minimize ${etol} ${ftol} ${maxiter} ${maxeval}
minimize 0 ${ftol} ${maxiter} ${maxeval}
minimize 0 1e-10 ${maxiter} ${maxeval}
minimize 0 1e-10 100000 ${maxeval}
minimize 0 1e-10 100000 100000
Generated 28 of 28 mixed pair_coeff terms from arithmetic mixing rule
WARNING: Energy due to 3 extra global DOFs will be included in minimizer energies
 (src/min.cpp:222)
WARNING: Inconsistent image flags
For more information see https://docs.lammps.org/err0027 (src/domain.cpp:1052)
Per MPI rank memory allocation (min/avg/max) = 20.57 | 20.57 | 20.57 Mbytes
   Step          Temp          PotEng         KinEng         TotEng         Press          Volume        Density    
    250051   297.91807     -15.813544      293.05227      277.23873     -1748.04        3916.0014      1.2883279    
    250429   297.91807     -214.00597      293.05227      79.046301      3572.9154      3895.3452      1.2951597    
Loop time of 0.120493 on 1 procs for 378 steps with 331 atoms

100.0% CPU use with 1 MPI tasks x 1 OpenMP threads

Minimization stats:
  Stopping criterion = linesearch alpha is zero
  Energy initial, next-to-last, final = 
     -15.8135440981739  -214.005969229727  -214.005969229727
  Force two-norm initial, final = 791.28749 93.924784
  Force max component initial, final = 396.04169 11.422733
  Final line search alpha, max atom move = 7.0967344e-13 8.1064103e-12
  Iterations, force evaluations = 378 531

MPI task timing breakdown:
Section |  min time  |  avg time  |  max time  |%varavg| %total
---------------------------------------------------------------
Pair    | 0.07779    | 0.07779    | 0.07779    |   0.0 | 64.56
Bond    | 0.023692   | 0.023692   | 0.023692   |   0.0 | 19.66
Neigh   | 0          | 0          | 0          |   0.0 |  0.00
Comm    | 0.0026587  | 0.0026587  | 0.0026587  |   0.0 |  2.21
Output  | 0.0019971  | 0.0019971  | 0.0019971  |   0.0 |  1.66
Modify  | 0          | 0          | 0          |   0.0 |  0.00
Other   |            | 0.01436    |            |       | 11.91

Nlocal:            331 ave         331 max         331 min
Histogram: 1 0 0 0 0 0 0 0 0 0
Nghost:           2139 ave        2139 max        2139 min
Histogram: 1 0 0 0 0 0 0 0 0 0
Neighs:          19015 ave       19015 max       19015 min
Histogram: 1 0 0 0 0 0 0 0 0 0

Total # of neighbors = 19015
Ave neighs/atom = 57.44713
Ave special neighs/atom = 5.8126888
Neighbor list builds = 0
Dangerous builds = 0

variable tmp equal pxx
variable pxx0 equal ${tmp}
variable pxx0 equal 3783.22784298604
variable tmp equal pyy
variable pyy0 equal ${tmp}
variable pyy0 equal 3670.30213565919
variable tmp equal pzz
variable pzz0 equal ${tmp}
variable pzz0 equal 3265.21625369643
variable tmp equal pyz
variable pyz0 equal ${tmp}
variable pyz0 equal 2681.78597914139
variable tmp equal pxz
variable pxz0 equal ${tmp}
variable pxz0 equal -154.167226158294
variable tmp equal pxy
variable pxy0 equal ${tmp}
variable pxy0 equal 1020.25483799562

variable tmp equal lx
variable lx0 equal ${tmp}
variable lx0 equal 16.0761767790504
variable tmp equal ly
variable ly0 equal ${tmp}
variable ly0 equal 13.5020044066054
variable tmp equal lz
variable lz0 equal ${tmp}
variable lz0 equal 17.9458870842928

# These formulas define the derivatives w.r.t. strain components
# Constants uses $, variables use v_
variable d1 equal -(v_pxx1-${pxx0})/(v_delta/v_len0)*${cfac}
variable d1 equal -(v_pxx1-3783.22784298604)/(v_delta/v_len0)*${cfac}
variable d1 equal -(v_pxx1-3783.22784298604)/(v_delta/v_len0)*0.0001
variable d2 equal -(v_pyy1-${pyy0})/(v_delta/v_len0)*${cfac}
variable d2 equal -(v_pyy1-3670.30213565919)/(v_delta/v_len0)*${cfac}
variable d2 equal -(v_pyy1-3670.30213565919)/(v_delta/v_len0)*0.0001
variable d3 equal -(v_pzz1-${pzz0})/(v_delta/v_len0)*${cfac}
variable d3 equal -(v_pzz1-3265.21625369643)/(v_delta/v_len0)*${cfac}
variable d3 equal -(v_pzz1-3265.21625369643)/(v_delta/v_len0)*0.0001
variable d4 equal -(v_pyz1-${pyz0})/(v_delta/v_len0)*${cfac}
variable d4 equal -(v_pyz1-2681.78597914139)/(v_delta/v_len0)*${cfac}
variable d4 equal -(v_pyz1-2681.78597914139)/(v_delta/v_len0)*0.0001
variable d5 equal -(v_pxz1-${pxz0})/(v_delta/v_len0)*${cfac}
variable d5 equal -(v_pxz1--154.167226158294)/(v_delta/v_len0)*${cfac}
variable d5 equal -(v_pxz1--154.167226158294)/(v_delta/v_len0)*0.0001
variable d6 equal -(v_pxy1-${pxy0})/(v_delta/v_len0)*${cfac}
variable d6 equal -(v_pxy1-1020.25483799562)/(v_delta/v_len0)*${cfac}
variable d6 equal -(v_pxy1-1020.25483799562)/(v_delta/v_len0)*0.0001

# displace_atoms all random ${atomjiggle} ${atomjiggle} ${atomjiggle} 87287 units box

# Write restart
unfix 3
write_restart restart_333-RV-32-vasp.equil
System init for write_restart ...
Generated 28 of 28 mixed pair_coeff terms from arithmetic mixing rule

# uxx Perturbation

variable dir equal 1
include ./input/displace_333-RV-32-vasp.mod
if "${dir} == 1" then    "variable len0 equal ${lx0}"
variable len0 equal ${lx0}
variable len0 equal 16.0761767790504
if "${dir} == 2" then    "variable len0 equal ${ly0}"
if "${dir} == 3" then    "variable len0 equal ${lz0}"
if "${dir} == 4" then    "variable len0 equal ${lz0}"
if "${dir} == 5" then    "variable len0 equal ${lz0}"
if "${dir} == 6" then    "variable len0 equal ${ly0}"

# Reset box and simulation parameters

clear
OMP_NUM_THREADS environment is not set. Defaulting to 1 thread.
  using 1 OpenMP thread(s) per MPI task
box tilt large

The 'box' command has been removed and will be ignored

read_restart restart_333-RV-32-vasp.equil
Reading restart file ...
  restart file = 10 Sep 2025, LAMMPS = 10 Sep 2025
  restoring atom style full from restart
  triclinic box = (-0.18372239 -0.2076062 -0.21054204) to (15.892454 13.294398 17.735345) with tilt (-8.4645428 -0.14928176 -2.0538006)
WARNING: Triclinic box skew is large. LAMMPS will run inefficiently. (src/domain.cpp:221)
  1 by 1 by 1 MPI processor grid
  restoring pair style lj/cut from restart
  restoring bond style harmonic from restart
  restoring angle style hybrid from restart
  restoring dihedral style harmonic from restart
  331 atoms
  336 bonds
  626 angles
  732 dihedrals
Finding 1-2 1-3 1-4 neighbors ...
  special bond factors lj:    0        0        1       
  special bond factors coul:  0        0        1       
     4 = max # of 1-2 neighbors
    10 = max # of 1-3 neighbors
    14 = max # of special neighbors
  special bonds CPU = 0.000 seconds
  read_restart CPU = 0.001 seconds
include ./input/angles_333-RV-32-vasp.mod
angle_style hybrid fourier cosine/periodic
angle_coeff 1 fourier 114.246973        0.343737        0.374972        0.281246
angle_coeff 2 fourier 157.882480        0.343737        0.374972        0.281246
angle_coeff 3 fourier 221.735285        0.343737        0.374972        0.281246
angle_coeff 4 fourier 58.020602        0.343737        0.374972        0.281246
angle_coeff 5 fourier 32.417871        0.343737        0.374972        0.281246
angle_coeff 6 fourier 83.380072        0.343737        0.374972        0.281246
angle_coeff 7 fourier 90.420412        0.343737        0.374972        0.281246
angle_coeff 8 fourier 75.498766        0.343737        0.374972        0.281246
angle_coeff 9 cosine/periodic 88.853997              -1               3

# Negative deformation

variable delta equal -${up}*${len0}
variable delta equal -0.02*${len0}
variable delta equal -0.02*16.0761767790504
variable deltaxy equal -${up}*xy
variable deltaxy equal -0.02*xy
variable deltaxz equal -${up}*xz
variable deltaxz equal -0.02*xz
variable deltayz equal -${up}*yz
variable deltayz equal -0.02*yz
if "${dir} == 1" then    "change_box all x delta 0 ${delta} xy delta ${deltaxy} xz delta ${deltaxz} remap units box"
change_box all x delta 0 ${delta} xy delta ${deltaxy} xz delta ${deltaxz} remap units box
change_box all x delta 0 -0.321523535581008 xy delta ${deltaxy} xz delta ${deltaxz} remap units box
change_box all x delta 0 -0.321523535581008 xy delta 0.169290856975275 xz delta ${deltaxz} remap units box
change_box all x delta 0 -0.321523535581008 xy delta 0.169290856975275 xz delta 0.00298563524310205 remap units box
Changing box ...
WARNING: Triclinic box skew is large. LAMMPS will run inefficiently. (src/domain.cpp:221)
  triclinic box = (-0.18372239 -0.2076062 -0.21054204) to (15.570931 13.294398 17.735345) with tilt (-8.4645428 -0.14928176 -2.0538006)
WARNING: Triclinic box skew is large. LAMMPS will run inefficiently. (src/domain.cpp:221)
  triclinic box = (-0.18372239 -0.2076062 -0.21054204) to (15.570931 13.294398 17.735345) with tilt (-8.295252 -0.14928176 -2.0538006)
WARNING: Triclinic box skew is large. LAMMPS will run inefficiently. (src/domain.cpp:221)
  triclinic box = (-0.18372239 -0.2076062 -0.21054204) to (15.570931 13.294398 17.735345) with tilt (-8.295252 -0.14629613 -2.0538006)
if "${dir} == 2" then    "change_box all y delta 0 ${delta} yz delta ${deltayz} remap units box"
if "${dir} == 3" then    "change_box all z delta 0 ${delta} remap units box"
if "${dir} == 4" then    "change_box all yz delta ${delta} remap units box"
if "${dir} == 5" then    "change_box all xz delta ${delta} remap units box"
if "${dir} == 6" then    "change_box all xy delta ${delta} remap units box"

# Relax atoms positions

minimize ${etol} ${ftol} ${maxiter} ${maxeval}
minimize 0 ${ftol} ${maxiter} ${maxeval}
minimize 0 1e-10 ${maxiter} ${maxeval}
minimize 0 1e-10 100000 ${maxeval}
minimize 0 1e-10 100000 100000
Generated 28 of 28 mixed pair_coeff terms from arithmetic mixing rule
Neighbor list info ...
  update: every = 1 steps, delay = 0 steps, check = yes
  max neighbors/atom: 2000, page size: 100000
  master list distance cutoff = 7
  ghost atom cutoff = 7
  binsize = 3.5, bins = 7 5 6
  1 neighbor lists, perpetual/occasional/extra = 1 0 0
  (1) pair lj/cut, perpetual
      attributes: half, newton on
      pair build: half/bin/newton/tri
      stencil: half/bin/3d/tri
      bin: standard
WARNING: Inconsistent image flags
For more information see https://docs.lammps.org/err0027 (src/domain.cpp:1052)
Per MPI rank memory allocation (min/avg/max) = 19.51 | 19.51 | 19.51 Mbytes
   Step          Temp          E_pair         E_mol          TotEng         Press     
    250429   297.91807     -407.46781      214.42625      100.01072      22803.521    
    250471   297.91807     -440.60322      130.41722     -17.133734      3069.0096    
Loop time of 0.0283835 on 1 procs for 42 steps with 331 atoms

100.0% CPU use with 1 MPI tasks x 1 OpenMP threads

Minimization stats:
  Stopping criterion = linesearch alpha is zero
  Energy initial, next-to-last, final = 
     -193.041553899286  -310.186004023812  -310.186004023812
  Force two-norm initial, final = 180.84565 20.331915
  Force max component initial, final = 20.705909 4.2167825
  Final line search alpha, max atom move = 1.621213e-11 6.8363026e-11
  Iterations, force evaluations = 42 141

MPI task timing breakdown:
Section |  min time  |  avg time  |  max time  |%varavg| %total
---------------------------------------------------------------
Pair    | 0.021449   | 0.021449   | 0.021449   |   0.0 | 75.57
Bond    | 0.0055522  | 0.0055522  | 0.0055522  |   0.0 | 19.56
Neigh   | 0          | 0          | 0          |   0.0 |  0.00
Comm    | 0.00082654 | 0.00082654 | 0.00082654 |   0.0 |  2.91
Output  | 0          | 0          | 0          |   0.0 |  0.00
Modify  | 0          | 0          | 0          |   0.0 |  0.00
Other   |            | 0.0005562  |            |       |  1.96

Nlocal:            331 ave         331 max         331 min
Histogram: 1 0 0 0 0 0 0 0 0 0
Nghost:           2173 ave        2173 max        2173 min
Histogram: 1 0 0 0 0 0 0 0 0 0
Neighs:          19501 ave       19501 max       19501 min
Histogram: 1 0 0 0 0 0 0 0 0 0

Total # of neighbors = 19501
Ave neighs/atom = 58.915408
Ave special neighs/atom = 5.8126888
Neighbor list builds = 0
Dangerous builds = 0

# Obtain new stress tensor

variable tmp equal pxx
variable pxx1 equal ${tmp}
variable pxx1 equal 4360.47566313719
variable tmp equal pyy
variable pyy1 equal ${tmp}
variable pyy1 equal 2548.76351430821
variable tmp equal pzz
variable pzz1 equal ${tmp}
variable pzz1 equal 2297.78948565352
variable tmp equal pxy
variable pxy1 equal ${tmp}
variable pxy1 equal -1323.70154499052
variable tmp equal pxz
variable pxz1 equal ${tmp}
variable pxz1 equal 365.414992973823
variable tmp equal pyz
variable pyz1 equal ${tmp}
variable pyz1 equal 107.718829136126

# Compute elastic constant from pressure tensor

variable C1neg equal ${d1}
variable C1neg equal 2.88623910075575
variable C2neg equal ${d2}
variable C2neg equal -5.6076931067549
variable C3neg equal ${d3}
variable C3neg equal -4.83713384021455
variable C4neg equal ${d4}
variable C4neg equal -12.8703357500263
variable C5neg equal ${d5}
variable C5neg equal 2.59791109566059
variable C6neg equal ${d6}
variable C6neg equal -11.7197819149307

# Reset box and simulation parameters

clear
OMP_NUM_THREADS environment is not set. Defaulting to 1 thread.
  using 1 OpenMP thread(s) per MPI task
box tilt large

The 'box' command has been removed and will be ignored

read_restart restart_333-RV-32-vasp.equil
Reading restart file ...
  restart file = 10 Sep 2025, LAMMPS = 10 Sep 2025
  restoring atom style full from restart
  triclinic box = (-0.18372239 -0.2076062 -0.21054204) to (15.892454 13.294398 17.735345) with tilt (-8.4645428 -0.14928176 -2.0538006)
WARNING: Triclinic box skew is large. LAMMPS will run inefficiently. (src/domain.cpp:221)
  1 by 1 by 1 MPI processor grid
  restoring pair style lj/cut from restart
  restoring bond style harmonic from restart
  restoring angle style hybrid from restart
  restoring dihedral style harmonic from restart
  331 atoms
  336 bonds
  626 angles
  732 dihedrals
Finding 1-2 1-3 1-4 neighbors ...
  special bond factors lj:    0        0        1       
  special bond factors coul:  0        0        1       
     4 = max # of 1-2 neighbors
    10 = max # of 1-3 neighbors
    14 = max # of special neighbors
  special bonds CPU = 0.000 seconds
  read_restart CPU = 0.001 seconds
include ./input/angles_333-RV-32-vasp.mod
angle_style hybrid fourier cosine/periodic
angle_coeff 1 fourier 114.246973        0.343737        0.374972        0.281246
angle_coeff 2 fourier 157.882480        0.343737        0.374972        0.281246
angle_coeff 3 fourier 221.735285        0.343737        0.374972        0.281246
angle_coeff 4 fourier 58.020602        0.343737        0.374972        0.281246
angle_coeff 5 fourier 32.417871        0.343737        0.374972        0.281246
angle_coeff 6 fourier 83.380072        0.343737        0.374972        0.281246
angle_coeff 7 fourier 90.420412        0.343737        0.374972        0.281246
angle_coeff 8 fourier 75.498766        0.343737        0.374972        0.281246
angle_coeff 9 cosine/periodic 88.853997              -1               3

# Positive deformation

variable delta equal ${up}*${len0}
variable delta equal 0.02*${len0}
variable delta equal 0.02*16.0761767790504
variable deltaxy equal ${up}*xy
variable deltaxy equal 0.02*xy
variable deltaxz equal ${up}*xz
variable deltaxz equal 0.02*xz
variable deltayz equal ${up}*yz
variable deltayz equal 0.02*yz
if "${dir} == 1" then    "change_box all x delta 0 ${delta} xy delta ${deltaxy} xz delta ${deltaxz} remap units box"
change_box all x delta 0 ${delta} xy delta ${deltaxy} xz delta ${deltaxz} remap units box
change_box all x delta 0 0.321523535581008 xy delta ${deltaxy} xz delta ${deltaxz} remap units box
change_box all x delta 0 0.321523535581008 xy delta -0.169290856975275 xz delta ${deltaxz} remap units box
change_box all x delta 0 0.321523535581008 xy delta -0.169290856975275 xz delta -0.00298563524310205 remap units box
Changing box ...
WARNING: Triclinic box skew is large. LAMMPS will run inefficiently. (src/domain.cpp:221)
  triclinic box = (-0.18372239 -0.2076062 -0.21054204) to (16.213978 13.294398 17.735345) with tilt (-8.4645428 -0.14928176 -2.0538006)
WARNING: Triclinic box skew is large. LAMMPS will run inefficiently. (src/domain.cpp:221)
  triclinic box = (-0.18372239 -0.2076062 -0.21054204) to (16.213978 13.294398 17.735345) with tilt (-8.6338337 -0.14928176 -2.0538006)
WARNING: Triclinic box skew is large. LAMMPS will run inefficiently. (src/domain.cpp:221)
  triclinic box = (-0.18372239 -0.2076062 -0.21054204) to (16.213978 13.294398 17.735345) with tilt (-8.6338337 -0.1522674 -2.0538006)
if "${dir} == 2" then    "change_box all y delta 0 ${delta} yz delta ${deltayz} remap units box"
if "${dir} == 3" then    "change_box all z delta 0 ${delta} remap units box"
if "${dir} == 4" then    "change_box all yz delta ${delta} remap units box"
if "${dir} == 5" then    "change_box all xz delta ${delta} remap units box"
if "${dir} == 6" then    "change_box all xy delta ${delta} remap units box"

# Relax atoms positions

minimize ${etol} ${ftol} ${maxiter} ${maxeval}
minimize 0 ${ftol} ${maxiter} ${maxeval}
minimize 0 1e-10 ${maxiter} ${maxeval}
minimize 0 1e-10 100000 ${maxeval}
minimize 0 1e-10 100000 100000
Generated 28 of 28 mixed pair_coeff terms from arithmetic mixing rule
Neighbor list info ...
  update: every = 1 steps, delay = 0 steps, check = yes
  max neighbors/atom: 2000, page size: 100000
  master list distance cutoff = 7
  ghost atom cutoff = 7
  binsize = 3.5, bins = 8 5 6
  1 neighbor lists, perpetual/occasional/extra = 1 0 0
  (1) pair lj/cut, perpetual
      attributes: half, newton on
      pair build: half/bin/newton/tri
      stencil: half/bin/3d/tri
      bin: standard
WARNING: Inconsistent image flags
For more information see https://docs.lammps.org/err0027 (src/domain.cpp:1052)
Per MPI rank memory allocation (min/avg/max) = 19.5 | 19.5 | 19.5 Mbytes
   Step          Temp          E_pair         E_mol          TotEng         Press     
    250429   297.91807     -413.8506       220.7517       99.953377     -15168.022    
    250475   297.91807     -433.29604      132.65738     -7.5863902     -1824.9144    
Loop time of 0.0287588 on 1 procs for 46 steps with 331 atoms

100.0% CPU use with 1 MPI tasks x 1 OpenMP threads

Minimization stats:
  Stopping criterion = linesearch alpha is zero
  Energy initial, next-to-last, final = 
     -193.098893509422  -300.638660577379  -300.638660577379
  Force two-norm initial, final = 171.2673 18.072505
  Force max component initial, final = 21.039837 2.9448344
  Final line search alpha, max atom move = 2.8351989e-11 8.3491914e-11
  Iterations, force evaluations = 46 147

MPI task timing breakdown:
Section |  min time  |  avg time  |  max time  |%varavg| %total
---------------------------------------------------------------
Pair    | 0.021599   | 0.021599   | 0.021599   |   0.0 | 75.10
Bond    | 0.0057896  | 0.0057896  | 0.0057896  |   0.0 | 20.13
Neigh   | 0          | 0          | 0          |   0.0 |  0.00
Comm    | 0.0007897  | 0.0007897  | 0.0007897  |   0.0 |  2.75
Output  | 0          | 0          | 0          |   0.0 |  0.00
Modify  | 0          | 0          | 0          |   0.0 |  0.00
Other   |            | 0.0005808  |            |       |  2.02

Nlocal:            331 ave         331 max         331 min
Histogram: 1 0 0 0 0 0 0 0 0 0
Nghost:           2107 ave        2107 max        2107 min
Histogram: 1 0 0 0 0 0 0 0 0 0
Neighs:          18716 ave       18716 max       18716 min
Histogram: 1 0 0 0 0 0 0 0 0 0

Total # of neighbors = 18716
Ave neighs/atom = 56.543807
Ave special neighs/atom = 5.8126888
Neighbor list builds = 0
Dangerous builds = 0

# Obtain new stress tensor

variable tmp equal pe
variable e1 equal ${tmp}
variable e1 equal -300.638660577379
variable tmp equal press
variable p1 equal ${tmp}
variable p1 equal -1824.91444491584
variable tmp equal pxx
variable pxx1 equal ${tmp}
variable pxx1 equal -4617.98301204735
variable tmp equal pyy
variable pyy1 equal ${tmp}
variable pyy1 equal 133.692669460503
variable tmp equal pzz
variable pzz1 equal ${tmp}
variable pzz1 equal -990.452992160671
variable tmp equal pxy
variable pxy1 equal ${tmp}
variable pxy1 equal -310.709182892075
variable tmp equal pxz
variable pxz1 equal ${tmp}
variable pxz1 equal -362.535382054832
variable tmp equal pyz
variable pyz1 equal ${tmp}
variable pyz1 equal 214.90369570081

# Compute elastic constant from pressure tensor

variable C1pos equal ${d1}
variable C1pos equal 42.006054275167
variable C2pos equal ${d2}
variable C2pos equal 17.6830473309934
variable C3pos equal ${d3}
variable C3pos equal 21.2783462292855
variable C4pos equal ${d4}
variable C4pos equal 12.3344114172029
variable C5pos equal ${d5}
variable C5pos equal 1.04184077948269
variable C6pos equal ${d6}
variable C6pos equal 6.65482010443847

# Combine positive and negative

variable C1${dir} equal 0.5*(${C1neg}+${C1pos})
variable C11 equal 0.5*(${C1neg}+${C1pos})
variable C11 equal 0.5*(2.88623910075575+${C1pos})
variable C11 equal 0.5*(2.88623910075575+42.006054275167)
variable C2${dir} equal 0.5*(${C2neg}+${C2pos})
variable C21 equal 0.5*(${C2neg}+${C2pos})
variable C21 equal 0.5*(-5.6076931067549+${C2pos})
variable C21 equal 0.5*(-5.6076931067549+17.6830473309934)
variable C3${dir} equal 0.5*(${C3neg}+${C3pos})
variable C31 equal 0.5*(${C3neg}+${C3pos})
variable C31 equal 0.5*(-4.83713384021455+${C3pos})
variable C31 equal 0.5*(-4.83713384021455+21.2783462292855)
variable C4${dir} equal 0.5*(${C4neg}+${C4pos})
variable C41 equal 0.5*(${C4neg}+${C4pos})
variable C41 equal 0.5*(-12.8703357500263+${C4pos})
variable C41 equal 0.5*(-12.8703357500263+12.3344114172029)
variable C5${dir} equal 0.5*(${C5neg}+${C5pos})
variable C51 equal 0.5*(${C5neg}+${C5pos})
variable C51 equal 0.5*(2.59791109566059+${C5pos})
variable C51 equal 0.5*(2.59791109566059+1.04184077948269)
variable C6${dir} equal 0.5*(${C6neg}+${C6pos})
variable C61 equal 0.5*(${C6neg}+${C6pos})
variable C61 equal 0.5*(-11.7197819149307+${C6pos})
variable C61 equal 0.5*(-11.7197819149307+6.65482010443847)

# Delete dir to make sure it is not reused

variable dir delete

# uyy Perturbation

variable dir equal 2
include ./input/displace_333-RV-32-vasp.mod
if "${dir} == 1" then    "variable len0 equal ${lx0}"
if "${dir} == 2" then    "variable len0 equal ${ly0}"
variable len0 equal ${ly0}
variable len0 equal 13.5020044066054
if "${dir} == 3" then    "variable len0 equal ${lz0}"
if "${dir} == 4" then    "variable len0 equal ${lz0}"
if "${dir} == 5" then    "variable len0 equal ${lz0}"
if "${dir} == 6" then    "variable len0 equal ${ly0}"

# Reset box and simulation parameters

clear
OMP_NUM_THREADS environment is not set. Defaulting to 1 thread.
  using 1 OpenMP thread(s) per MPI task
box tilt large

The 'box' command has been removed and will be ignored

read_restart restart_333-RV-32-vasp.equil
Reading restart file ...
  restart file = 10 Sep 2025, LAMMPS = 10 Sep 2025
  restoring atom style full from restart
  triclinic box = (-0.18372239 -0.2076062 -0.21054204) to (15.892454 13.294398 17.735345) with tilt (-8.4645428 -0.14928176 -2.0538006)
WARNING: Triclinic box skew is large. LAMMPS will run inefficiently. (src/domain.cpp:221)
  1 by 1 by 1 MPI processor grid
  restoring pair style lj/cut from restart
  restoring bond style harmonic from restart
  restoring angle style hybrid from restart
  restoring dihedral style harmonic from restart
  331 atoms
  336 bonds
  626 angles
  732 dihedrals
Finding 1-2 1-3 1-4 neighbors ...
  special bond factors lj:    0        0        1       
  special bond factors coul:  0        0        1       
     4 = max # of 1-2 neighbors
    10 = max # of 1-3 neighbors
    14 = max # of special neighbors
  special bonds CPU = 0.000 seconds
  read_restart CPU = 0.001 seconds
include ./input/angles_333-RV-32-vasp.mod
angle_style hybrid fourier cosine/periodic
angle_coeff 1 fourier 114.246973        0.343737        0.374972        0.281246
angle_coeff 2 fourier 157.882480        0.343737        0.374972        0.281246
angle_coeff 3 fourier 221.735285        0.343737        0.374972        0.281246
angle_coeff 4 fourier 58.020602        0.343737        0.374972        0.281246
angle_coeff 5 fourier 32.417871        0.343737        0.374972        0.281246
angle_coeff 6 fourier 83.380072        0.343737        0.374972        0.281246
angle_coeff 7 fourier 90.420412        0.343737        0.374972        0.281246
angle_coeff 8 fourier 75.498766        0.343737        0.374972        0.281246
angle_coeff 9 cosine/periodic 88.853997              -1               3

# Negative deformation

variable delta equal -${up}*${len0}
variable delta equal -0.02*${len0}
variable delta equal -0.02*13.5020044066054
variable deltaxy equal -${up}*xy
variable deltaxy equal -0.02*xy
variable deltaxz equal -${up}*xz
variable deltaxz equal -0.02*xz
variable deltayz equal -${up}*yz
variable deltayz equal -0.02*yz
if "${dir} == 1" then    "change_box all x delta 0 ${delta} xy delta ${deltaxy} xz delta ${deltaxz} remap units box"
if "${dir} == 2" then    "change_box all y delta 0 ${delta} yz delta ${deltayz} remap units box"
change_box all y delta 0 ${delta} yz delta ${deltayz} remap units box
change_box all y delta 0 -0.270040088132108 yz delta ${deltayz} remap units box
change_box all y delta 0 -0.270040088132108 yz delta 0.0410760116334854 remap units box
Changing box ...
WARNING: Triclinic box skew is large. LAMMPS will run inefficiently. (src/domain.cpp:221)
  triclinic box = (-0.18372239 -0.2076062 -0.21054204) to (15.892454 13.024358 17.735345) with tilt (-8.4645428 -0.14928176 -2.0538006)
WARNING: Triclinic box skew is large. LAMMPS will run inefficiently. (src/domain.cpp:221)
  triclinic box = (-0.18372239 -0.2076062 -0.21054204) to (15.892454 13.024358 17.735345) with tilt (-8.4645428 -0.14928176 -2.0127246)
if "${dir} == 3" then    "change_box all z delta 0 ${delta} remap units box"
if "${dir} == 4" then    "change_box all yz delta ${delta} remap units box"
if "${dir} == 5" then    "change_box all xz delta ${delta} remap units box"
if "${dir} == 6" then    "change_box all xy delta ${delta} remap units box"

# Relax atoms positions

minimize ${etol} ${ftol} ${maxiter} ${maxeval}
minimize 0 ${ftol} ${maxiter} ${maxeval}
minimize 0 1e-10 ${maxiter} ${maxeval}
minimize 0 1e-10 100000 ${maxeval}
minimize 0 1e-10 100000 100000
Generated 28 of 28 mixed pair_coeff terms from arithmetic mixing rule
Neighbor list info ...
  update: every = 1 steps, delay = 0 steps, check = yes
  max neighbors/atom: 2000, page size: 100000
  master list distance cutoff = 7
  ghost atom cutoff = 7
  binsize = 3.5, bins = 8 5 6
  1 neighbor lists, perpetual/occasional/extra = 1 0 0
  (1) pair lj/cut, perpetual
      attributes: half, newton on
      pair build: half/bin/newton/tri
      stencil: half/bin/3d/tri
      bin: standard
WARNING: Inconsistent image flags
For more information see https://docs.lammps.org/err0027 (src/domain.cpp:1052)
Per MPI rank memory allocation (min/avg/max) = 19.51 | 19.51 | 19.51 Mbytes
   Step          Temp          E_pair         E_mol          TotEng         Press     
    250429   297.91807     -406.75422      214.31097      100.60902      22536.996    
    250467   297.91807     -439.74243      132.7698      -13.920362      2992.5888    
Loop time of 0.0275192 on 1 procs for 38 steps with 331 atoms

100.0% CPU use with 1 MPI tasks x 1 OpenMP threads

Minimization stats:
  Stopping criterion = linesearch alpha is zero
  Energy initial, next-to-last, final = 
     -192.443254277712  -306.972632858933  -306.972632858933
  Force two-norm initial, final = 179.86034 22.778131
  Force max component initial, final = 24.391917 3.7488249
  Final line search alpha, max atom move = 1.3227952e-11 4.9589278e-11
  Iterations, force evaluations = 38 133

MPI task timing breakdown:
Section |  min time  |  avg time  |  max time  |%varavg| %total
---------------------------------------------------------------
Pair    | 0.020849   | 0.020849   | 0.020849   |   0.0 | 75.76
Bond    | 0.0053744  | 0.0053744  | 0.0053744  |   0.0 | 19.53
Neigh   | 0          | 0          | 0          |   0.0 |  0.00
Comm    | 0.00072213 | 0.00072213 | 0.00072213 |   0.0 |  2.62
Output  | 0          | 0          | 0          |   0.0 |  0.00
Modify  | 0          | 0          | 0          |   0.0 |  0.00
Other   |            | 0.0005739  |            |       |  2.09

Nlocal:            331 ave         331 max         331 min
Histogram: 1 0 0 0 0 0 0 0 0 0
Nghost:           2185 ave        2185 max        2185 min
Histogram: 1 0 0 0 0 0 0 0 0 0
Neighs:          19509 ave       19509 max       19509 min
Histogram: 1 0 0 0 0 0 0 0 0 0

Total # of neighbors = 19509
Ave neighs/atom = 58.939577
Ave special neighs/atom = 5.8126888
Neighbor list builds = 0
Dangerous builds = 0

# Obtain new stress tensor

variable tmp equal pxx
variable pxx1 equal ${tmp}
variable pxx1 equal 1613.87421485949
variable tmp equal pyy
variable pyy1 equal ${tmp}
variable pyy1 equal 5399.20700287109
variable tmp equal pzz
variable pzz1 equal ${tmp}
variable pzz1 equal 1964.68520980119
variable tmp equal pxy
variable pxy1 equal ${tmp}
variable pxy1 equal -1509.0903117805
variable tmp equal pxz
variable pxz1 equal ${tmp}
variable pxz1 equal -89.1795552931546
variable tmp equal pyz
variable pyz1 equal ${tmp}
variable pyz1 equal 174.833255827239

# Compute elastic constant from pressure tensor

variable C1neg equal ${d1}
variable C1neg equal -10.8467681406327
variable C2neg equal ${d2}
variable C2neg equal 8.6445243360595
variable C3neg equal ${d3}
variable C3neg equal -6.5026552194762
variable C4neg equal ${d4}
variable C4neg equal -12.5347636165708
variable C5neg equal ${d5}
variable C5neg equal 0.324938354325697
variable C6neg equal ${d6}
variable C6neg equal -12.6467257488806

# Reset box and simulation parameters

clear
OMP_NUM_THREADS environment is not set. Defaulting to 1 thread.
  using 1 OpenMP thread(s) per MPI task
box tilt large

The 'box' command has been removed and will be ignored

read_restart restart_333-RV-32-vasp.equil
Reading restart file ...
  restart file = 10 Sep 2025, LAMMPS = 10 Sep 2025
  restoring atom style full from restart
  triclinic box = (-0.18372239 -0.2076062 -0.21054204) to (15.892454 13.294398 17.735345) with tilt (-8.4645428 -0.14928176 -2.0538006)
WARNING: Triclinic box skew is large. LAMMPS will run inefficiently. (src/domain.cpp:221)
  1 by 1 by 1 MPI processor grid
  restoring pair style lj/cut from restart
  restoring bond style harmonic from restart
  restoring angle style hybrid from restart
  restoring dihedral style harmonic from restart
  331 atoms
  336 bonds
  626 angles
  732 dihedrals
Finding 1-2 1-3 1-4 neighbors ...
  special bond factors lj:    0        0        1       
  special bond factors coul:  0        0        1       
     4 = max # of 1-2 neighbors
    10 = max # of 1-3 neighbors
    14 = max # of special neighbors
  special bonds CPU = 0.000 seconds
  read_restart CPU = 0.001 seconds
include ./input/angles_333-RV-32-vasp.mod
angle_style hybrid fourier cosine/periodic
angle_coeff 1 fourier 114.246973        0.343737        0.374972        0.281246
angle_coeff 2 fourier 157.882480        0.343737        0.374972        0.281246
angle_coeff 3 fourier 221.735285        0.343737        0.374972        0.281246
angle_coeff 4 fourier 58.020602        0.343737        0.374972        0.281246
angle_coeff 5 fourier 32.417871        0.343737        0.374972        0.281246
angle_coeff 6 fourier 83.380072        0.343737        0.374972        0.281246
angle_coeff 7 fourier 90.420412        0.343737        0.374972        0.281246
angle_coeff 8 fourier 75.498766        0.343737        0.374972        0.281246
angle_coeff 9 cosine/periodic 88.853997              -1               3

# Positive deformation

variable delta equal ${up}*${len0}
variable delta equal 0.02*${len0}
variable delta equal 0.02*13.5020044066054
variable deltaxy equal ${up}*xy
variable deltaxy equal 0.02*xy
variable deltaxz equal ${up}*xz
variable deltaxz equal 0.02*xz
variable deltayz equal ${up}*yz
variable deltayz equal 0.02*yz
if "${dir} == 1" then    "change_box all x delta 0 ${delta} xy delta ${deltaxy} xz delta ${deltaxz} remap units box"
if "${dir} == 2" then    "change_box all y delta 0 ${delta} yz delta ${deltayz} remap units box"
change_box all y delta 0 ${delta} yz delta ${deltayz} remap units box
change_box all y delta 0 0.270040088132108 yz delta ${deltayz} remap units box
change_box all y delta 0 0.270040088132108 yz delta -0.0410760116334854 remap units box
Changing box ...
WARNING: Triclinic box skew is large. LAMMPS will run inefficiently. (src/domain.cpp:221)
  triclinic box = (-0.18372239 -0.2076062 -0.21054204) to (15.892454 13.564438 17.735345) with tilt (-8.4645428 -0.14928176 -2.0538006)
WARNING: Triclinic box skew is large. LAMMPS will run inefficiently. (src/domain.cpp:221)
  triclinic box = (-0.18372239 -0.2076062 -0.21054204) to (15.892454 13.564438 17.735345) with tilt (-8.4645428 -0.14928176 -2.0948766)
if "${dir} == 3" then    "change_box all z delta 0 ${delta} remap units box"
if "${dir} == 4" then    "change_box all yz delta ${delta} remap units box"
if "${dir} == 5" then    "change_box all xz delta ${delta} remap units box"
if "${dir} == 6" then    "change_box all xy delta ${delta} remap units box"

# Relax atoms positions

minimize ${etol} ${ftol} ${maxiter} ${maxeval}
minimize 0 ${ftol} ${maxiter} ${maxeval}
minimize 0 1e-10 ${maxiter} ${maxeval}
minimize 0 1e-10 100000 ${maxeval}
minimize 0 1e-10 100000 100000
Generated 28 of 28 mixed pair_coeff terms from arithmetic mixing rule
Neighbor list info ...
  update: every = 1 steps, delay = 0 steps, check = yes
  max neighbors/atom: 2000, page size: 100000
  master list distance cutoff = 7
  ghost atom cutoff = 7
  binsize = 3.5, bins = 8 5 6
  1 neighbor lists, perpetual/occasional/extra = 1 0 0
  (1) pair lj/cut, perpetual
      attributes: half, newton on
      pair build: half/bin/newton/tri
      stencil: half/bin/3d/tri
      bin: standard
WARNING: Inconsistent image flags
For more information see https://docs.lammps.org/err0027 (src/domain.cpp:1052)
Per MPI rank memory allocation (min/avg/max) = 19.5 | 19.5 | 19.5 Mbytes
   Step          Temp          E_pair         E_mol          TotEng         Press     
    250429   297.91807     -414.24504      220.83047      99.637701     -14905.169    
    250472   297.91807     -432.3812       129.97861     -9.350314      -1128.5395    
Loop time of 0.0271883 on 1 procs for 43 steps with 331 atoms

100.0% CPU use with 1 MPI tasks x 1 OpenMP threads

Minimization stats:
  Stopping criterion = linesearch alpha is zero
  Energy initial, next-to-last, final = 
     -193.414568895603  -302.402584417899  -302.402584417899
  Force two-norm initial, final = 179.82927 19.059863
  Force max component initial, final = 20.426887 2.9780378
  Final line search alpha, max atom move = 3.0381011e-11 9.0475799e-11
  Iterations, force evaluations = 43 141

MPI task timing breakdown:
Section |  min time  |  avg time  |  max time  |%varavg| %total
---------------------------------------------------------------
Pair    | 0.020522   | 0.020522   | 0.020522   |   0.0 | 75.48
Bond    | 0.0054334  | 0.0054334  | 0.0054334  |   0.0 | 19.98
Neigh   | 0          | 0          | 0          |   0.0 |  0.00
Comm    | 0.00069583 | 0.00069583 | 0.00069583 |   0.0 |  2.56
Output  | 0          | 0          | 0          |   0.0 |  0.00
Modify  | 0          | 0          | 0          |   0.0 |  0.00
Other   |            | 0.0005373  |            |       |  1.98

Nlocal:            331 ave         331 max         331 min
Histogram: 1 0 0 0 0 0 0 0 0 0
Nghost:           2107 ave        2107 max        2107 min
Histogram: 1 0 0 0 0 0 0 0 0 0
Neighs:          18737 ave       18737 max       18737 min
Histogram: 1 0 0 0 0 0 0 0 0 0

Total # of neighbors = 18737
Ave neighs/atom = 56.607251
Ave special neighs/atom = 5.8126888
Neighbor list builds = 0
Dangerous builds = 0

# Obtain new stress tensor

variable tmp equal pe
variable e1 equal ${tmp}
variable e1 equal -302.402584417899
variable tmp equal press
variable p1 equal ${tmp}
variable p1 equal -1128.5395341276
variable tmp equal pxx
variable pxx1 equal ${tmp}
variable pxx1 equal -1452.49804401096
variable tmp equal pyy
variable pyy1 equal ${tmp}
variable pyy1 equal -1659.45358517437
variable tmp equal pzz
variable pzz1 equal ${tmp}
variable pzz1 equal -273.66697319748
variable tmp equal pxy
variable pxy1 equal ${tmp}
variable pxy1 equal -358.464150219499
variable tmp equal pxz
variable pxz1 equal ${tmp}
variable pxz1 equal -519.313920325243
variable tmp equal pyz
variable pyz1 equal ${tmp}
variable pyz1 equal -13.2548931303081

# Compute elastic constant from pressure tensor

variable C1pos equal ${d1}
variable C1pos equal 26.178629434985
variable C2pos equal ${d2}
variable C2pos equal 26.6487786041678
variable C3pos equal ${d3}
variable C3pos equal 17.6944161344695
variable C4pos equal ${d4}
variable C4pos equal 13.4752043613585
variable C5pos equal ${d5}
variable C5pos equal 1.82573347083474
variable C6pos equal ${d6}
variable C6pos equal 6.89359494107559

# Combine positive and negative

variable C1${dir} equal 0.5*(${C1neg}+${C1pos})
variable C12 equal 0.5*(${C1neg}+${C1pos})
variable C12 equal 0.5*(-10.8467681406327+${C1pos})
variable C12 equal 0.5*(-10.8467681406327+26.178629434985)
variable C2${dir} equal 0.5*(${C2neg}+${C2pos})
variable C22 equal 0.5*(${C2neg}+${C2pos})
variable C22 equal 0.5*(8.6445243360595+${C2pos})
variable C22 equal 0.5*(8.6445243360595+26.6487786041678)
variable C3${dir} equal 0.5*(${C3neg}+${C3pos})
variable C32 equal 0.5*(${C3neg}+${C3pos})
variable C32 equal 0.5*(-6.5026552194762+${C3pos})
variable C32 equal 0.5*(-6.5026552194762+17.6944161344695)
variable C4${dir} equal 0.5*(${C4neg}+${C4pos})
variable C42 equal 0.5*(${C4neg}+${C4pos})
variable C42 equal 0.5*(-12.5347636165708+${C4pos})
variable C42 equal 0.5*(-12.5347636165708+13.4752043613585)
variable C5${dir} equal 0.5*(${C5neg}+${C5pos})
variable C52 equal 0.5*(${C5neg}+${C5pos})
variable C52 equal 0.5*(0.324938354325697+${C5pos})
variable C52 equal 0.5*(0.324938354325697+1.82573347083474)
variable C6${dir} equal 0.5*(${C6neg}+${C6pos})
variable C62 equal 0.5*(${C6neg}+${C6pos})
variable C62 equal 0.5*(-12.6467257488806+${C6pos})
variable C62 equal 0.5*(-12.6467257488806+6.89359494107559)

# Delete dir to make sure it is not reused

variable dir delete

# uzz Perturbation

variable dir equal 3
include ./input/displace_333-RV-32-vasp.mod
if "${dir} == 1" then    "variable len0 equal ${lx0}"
if "${dir} == 2" then    "variable len0 equal ${ly0}"
if "${dir} == 3" then    "variable len0 equal ${lz0}"
variable len0 equal ${lz0}
variable len0 equal 17.9458870842928
if "${dir} == 4" then    "variable len0 equal ${lz0}"
if "${dir} == 5" then    "variable len0 equal ${lz0}"
if "${dir} == 6" then    "variable len0 equal ${ly0}"

# Reset box and simulation parameters

clear
OMP_NUM_THREADS environment is not set. Defaulting to 1 thread.
  using 1 OpenMP thread(s) per MPI task
box tilt large

The 'box' command has been removed and will be ignored

read_restart restart_333-RV-32-vasp.equil
Reading restart file ...
  restart file = 10 Sep 2025, LAMMPS = 10 Sep 2025
  restoring atom style full from restart
  triclinic box = (-0.18372239 -0.2076062 -0.21054204) to (15.892454 13.294398 17.735345) with tilt (-8.4645428 -0.14928176 -2.0538006)
WARNING: Triclinic box skew is large. LAMMPS will run inefficiently. (src/domain.cpp:221)
  1 by 1 by 1 MPI processor grid
  restoring pair style lj/cut from restart
  restoring bond style harmonic from restart
  restoring angle style hybrid from restart
  restoring dihedral style harmonic from restart
  331 atoms
  336 bonds
  626 angles
  732 dihedrals
Finding 1-2 1-3 1-4 neighbors ...
  special bond factors lj:    0        0        1       
  special bond factors coul:  0        0        1       
     4 = max # of 1-2 neighbors
    10 = max # of 1-3 neighbors
    14 = max # of special neighbors
  special bonds CPU = 0.000 seconds
  read_restart CPU = 0.001 seconds
include ./input/angles_333-RV-32-vasp.mod
angle_style hybrid fourier cosine/periodic
angle_coeff 1 fourier 114.246973        0.343737        0.374972        0.281246
angle_coeff 2 fourier 157.882480        0.343737        0.374972        0.281246
angle_coeff 3 fourier 221.735285        0.343737        0.374972        0.281246
angle_coeff 4 fourier 58.020602        0.343737        0.374972        0.281246
angle_coeff 5 fourier 32.417871        0.343737        0.374972        0.281246
angle_coeff 6 fourier 83.380072        0.343737        0.374972        0.281246
angle_coeff 7 fourier 90.420412        0.343737        0.374972        0.281246
angle_coeff 8 fourier 75.498766        0.343737        0.374972        0.281246
angle_coeff 9 cosine/periodic 88.853997              -1               3

# Negative deformation

variable delta equal -${up}*${len0}
variable delta equal -0.02*${len0}
variable delta equal -0.02*17.9458870842928
variable deltaxy equal -${up}*xy
variable deltaxy equal -0.02*xy
variable deltaxz equal -${up}*xz
variable deltaxz equal -0.02*xz
variable deltayz equal -${up}*yz
variable deltayz equal -0.02*yz
if "${dir} == 1" then    "change_box all x delta 0 ${delta} xy delta ${deltaxy} xz delta ${deltaxz} remap units box"
if "${dir} == 2" then    "change_box all y delta 0 ${delta} yz delta ${deltayz} remap units box"
if "${dir} == 3" then    "change_box all z delta 0 ${delta} remap units box"
change_box all z delta 0 ${delta} remap units box
change_box all z delta 0 -0.358917741685856 remap units box
Changing box ...
WARNING: Triclinic box skew is large. LAMMPS will run inefficiently. (src/domain.cpp:221)
  triclinic box = (-0.18372239 -0.2076062 -0.21054204) to (15.892454 13.294398 17.376427) with tilt (-8.4645428 -0.14928176 -2.0538006)
if "${dir} == 4" then    "change_box all yz delta ${delta} remap units box"
if "${dir} == 5" then    "change_box all xz delta ${delta} remap units box"
if "${dir} == 6" then    "change_box all xy delta ${delta} remap units box"

# Relax atoms positions

minimize ${etol} ${ftol} ${maxiter} ${maxeval}
minimize 0 ${ftol} ${maxiter} ${maxeval}
minimize 0 1e-10 ${maxiter} ${maxeval}
minimize 0 1e-10 100000 ${maxeval}
minimize 0 1e-10 100000 100000
Generated 28 of 28 mixed pair_coeff terms from arithmetic mixing rule
Neighbor list info ...
  update: every = 1 steps, delay = 0 steps, check = yes
  max neighbors/atom: 2000, page size: 100000
  master list distance cutoff = 7
  ghost atom cutoff = 7
  binsize = 3.5, bins = 8 5 6
  1 neighbor lists, perpetual/occasional/extra = 1 0 0
  (1) pair lj/cut, perpetual
      attributes: half, newton on
      pair build: half/bin/newton/tri
      stencil: half/bin/3d/tri
      bin: standard
WARNING: Inconsistent image flags
For more information see https://docs.lammps.org/err0027 (src/domain.cpp:1052)
Per MPI rank memory allocation (min/avg/max) = 19.51 | 19.51 | 19.51 Mbytes
   Step          Temp          E_pair         E_mol          TotEng         Press     
    250429   297.91807     -405.5347       214.8226       102.34017      23765.806    
    250469   297.91807     -437.76856      131.87695     -12.839338      3610.5217    
Loop time of 0.0277337 on 1 procs for 40 steps with 331 atoms

100.0% CPU use with 1 MPI tasks x 1 OpenMP threads

Minimization stats:
  Stopping criterion = linesearch alpha is zero
  Energy initial, next-to-last, final = 
     -190.712099831032  -305.891608405417  -305.891608405417
  Force two-norm initial, final = 179.47184 20.667553
  Force max component initial, final = 21.546728 2.8117183
  Final line search alpha, max atom move = 1.5269792e-11 4.2934354e-11
  Iterations, force evaluations = 40 137

MPI task timing breakdown:
Section |  min time  |  avg time  |  max time  |%varavg| %total
---------------------------------------------------------------
Pair    | 0.021132   | 0.021132   | 0.021132   |   0.0 | 76.20
Bond    | 0.0053212  | 0.0053212  | 0.0053212  |   0.0 | 19.19
Neigh   | 0          | 0          | 0          |   0.0 |  0.00
Comm    | 0.00072713 | 0.00072713 | 0.00072713 |   0.0 |  2.62
Output  | 0          | 0          | 0          |   0.0 |  0.00
Modify  | 0          | 0          | 0          |   0.0 |  0.00
Other   |            | 0.0005529  |            |       |  1.99

Nlocal:            331 ave         331 max         331 min
Histogram: 1 0 0 0 0 0 0 0 0 0
Nghost:           2165 ave        2165 max        2165 min
Histogram: 1 0 0 0 0 0 0 0 0 0
Neighs:          19534 ave       19534 max       19534 min
Histogram: 1 0 0 0 0 0 0 0 0 0

Total # of neighbors = 19534
Ave neighs/atom = 59.015106
Ave special neighs/atom = 5.8126888
Neighbor list builds = 0
Dangerous builds = 0

# Obtain new stress tensor

variable tmp equal pxx
variable pxx1 equal ${tmp}
variable pxx1 equal 1959.2110138686
variable tmp equal pyy
variable pyy1 equal ${tmp}
variable pyy1 equal 2807.54109383289
variable tmp equal pzz
variable pzz1 equal ${tmp}
variable pzz1 equal 6064.8131312819
variable tmp equal pxy
variable pxy1 equal ${tmp}
variable pxy1 equal -764.968053869592
variable tmp equal pxz
variable pxz1 equal ${tmp}
variable pxz1 equal 367.402291701034
variable tmp equal pyz
variable pyz1 equal ${tmp}
variable pyz1 equal 182.92095934298

# Compute elastic constant from pressure tensor

variable C1neg equal ${d1}
variable C1neg equal -9.1200841455872
variable C2neg equal ${d2}
variable C2neg equal -4.3138052091315
variable C3neg equal ${d3}
variable C3neg equal 13.9979843879273
variable C4neg equal ${d4}
variable C4neg equal -12.4943250989921
variable C5neg equal ${d5}
variable C5neg equal 2.60784758929664
variable C6neg equal ${d6}
variable C6neg equal -8.92611445932606

# Reset box and simulation parameters

clear
OMP_NUM_THREADS environment is not set. Defaulting to 1 thread.
  using 1 OpenMP thread(s) per MPI task
box tilt large

The 'box' command has been removed and will be ignored

read_restart restart_333-RV-32-vasp.equil
Reading restart file ...
  restart file = 10 Sep 2025, LAMMPS = 10 Sep 2025
  restoring atom style full from restart
  triclinic box = (-0.18372239 -0.2076062 -0.21054204) to (15.892454 13.294398 17.735345) with tilt (-8.4645428 -0.14928176 -2.0538006)
WARNING: Triclinic box skew is large. LAMMPS will run inefficiently. (src/domain.cpp:221)
  1 by 1 by 1 MPI processor grid
  restoring pair style lj/cut from restart
  restoring bond style harmonic from restart
  restoring angle style hybrid from restart
  restoring dihedral style harmonic from restart
  331 atoms
  336 bonds
  626 angles
  732 dihedrals
Finding 1-2 1-3 1-4 neighbors ...
  special bond factors lj:    0        0        1       
  special bond factors coul:  0        0        1       
     4 = max # of 1-2 neighbors
    10 = max # of 1-3 neighbors
    14 = max # of special neighbors
  special bonds CPU = 0.000 seconds
  read_restart CPU = 0.001 seconds
include ./input/angles_333-RV-32-vasp.mod
angle_style hybrid fourier cosine/periodic
angle_coeff 1 fourier 114.246973        0.343737        0.374972        0.281246
angle_coeff 2 fourier 157.882480        0.343737        0.374972        0.281246
angle_coeff 3 fourier 221.735285        0.343737        0.374972        0.281246
angle_coeff 4 fourier 58.020602        0.343737        0.374972        0.281246
angle_coeff 5 fourier 32.417871        0.343737        0.374972        0.281246
angle_coeff 6 fourier 83.380072        0.343737        0.374972        0.281246
angle_coeff 7 fourier 90.420412        0.343737        0.374972        0.281246
angle_coeff 8 fourier 75.498766        0.343737        0.374972        0.281246
angle_coeff 9 cosine/periodic 88.853997              -1               3

# Positive deformation

variable delta equal ${up}*${len0}
variable delta equal 0.02*${len0}
variable delta equal 0.02*17.9458870842928
variable deltaxy equal ${up}*xy
variable deltaxy equal 0.02*xy
variable deltaxz equal ${up}*xz
variable deltaxz equal 0.02*xz
variable deltayz equal ${up}*yz
variable deltayz equal 0.02*yz
if "${dir} == 1" then    "change_box all x delta 0 ${delta} xy delta ${deltaxy} xz delta ${deltaxz} remap units box"
if "${dir} == 2" then    "change_box all y delta 0 ${delta} yz delta ${deltayz} remap units box"
if "${dir} == 3" then    "change_box all z delta 0 ${delta} remap units box"
change_box all z delta 0 ${delta} remap units box
change_box all z delta 0 0.358917741685856 remap units box
Changing box ...
WARNING: Triclinic box skew is large. LAMMPS will run inefficiently. (src/domain.cpp:221)
  triclinic box = (-0.18372239 -0.2076062 -0.21054204) to (15.892454 13.294398 18.094263) with tilt (-8.4645428 -0.14928176 -2.0538006)
if "${dir} == 4" then    "change_box all yz delta ${delta} remap units box"
if "${dir} == 5" then    "change_box all xz delta ${delta} remap units box"
if "${dir} == 6" then    "change_box all xy delta ${delta} remap units box"

# Relax atoms positions

minimize ${etol} ${ftol} ${maxiter} ${maxeval}
minimize 0 ${ftol} ${maxiter} ${maxeval}
minimize 0 1e-10 ${maxiter} ${maxeval}
minimize 0 1e-10 100000 ${maxeval}
minimize 0 1e-10 100000 100000
Generated 28 of 28 mixed pair_coeff terms from arithmetic mixing rule
Neighbor list info ...
  update: every = 1 steps, delay = 0 steps, check = yes
  max neighbors/atom: 2000, page size: 100000
  master list distance cutoff = 7
  ghost atom cutoff = 7
  binsize = 3.5, bins = 8 5 6
  1 neighbor lists, perpetual/occasional/extra = 1 0 0
  (1) pair lj/cut, perpetual
      attributes: half, newton on
      pair build: half/bin/newton/tri
      stencil: half/bin/3d/tri
      bin: standard
WARNING: Inconsistent image flags
For more information see https://docs.lammps.org/err0027 (src/domain.cpp:1052)
Per MPI rank memory allocation (min/avg/max) = 19.5 | 19.5 | 19.5 Mbytes
   Step          Temp          E_pair         E_mol          TotEng         Press     
    250429   297.91807     -415.0563       223.41227      101.40824     -16096.697    
    250466   297.91807     -431.03744      131.41662     -6.5685457     -1349.4575    
Loop time of 0.0252995 on 1 procs for 37 steps with 331 atoms

100.0% CPU use with 1 MPI tasks x 1 OpenMP threads

Minimization stats:
  Stopping criterion = linesearch alpha is zero
  Energy initial, next-to-last, final = 
      -191.64402753479  -299.620816122884  -299.620816122884
  Force two-norm initial, final = 176.74238 21.260688
  Force max component initial, final = 19.321969 3.6837235
  Final line search alpha, max atom move = 1.5855532e-11 5.8407394e-11
  Iterations, force evaluations = 37 131

MPI task timing breakdown:
Section |  min time  |  avg time  |  max time  |%varavg| %total
---------------------------------------------------------------
Pair    | 0.019137   | 0.019137   | 0.019137   |   0.0 | 75.64
Bond    | 0.0050077  | 0.0050077  | 0.0050077  |   0.0 | 19.79
Neigh   | 0          | 0          | 0          |   0.0 |  0.00
Comm    | 0.0006543  | 0.0006543  | 0.0006543  |   0.0 |  2.59
Output  | 0          | 0          | 0          |   0.0 |  0.00
Modify  | 0          | 0          | 0          |   0.0 |  0.00
Other   |            | 0.0005005  |            |       |  1.98

Nlocal:            331 ave         331 max         331 min
Histogram: 1 0 0 0 0 0 0 0 0 0
Nghost:           2109 ave        2109 max        2109 min
Histogram: 1 0 0 0 0 0 0 0 0 0
Neighs:          18714 ave       18714 max       18714 min
Histogram: 1 0 0 0 0 0 0 0 0 0

Total # of neighbors = 18714
Ave neighs/atom = 56.537764
Ave special neighs/atom = 5.8126888
Neighbor list builds = 0
Dangerous builds = 0

# Obtain new stress tensor

variable tmp equal pe
variable e1 equal ${tmp}
variable e1 equal -299.620816122884
variable tmp equal press
variable p1 equal ${tmp}
variable p1 equal -1349.45751569792
variable tmp equal pxx
variable pxx1 equal ${tmp}
variable pxx1 equal -1324.14848774297
variable tmp equal pyy
variable pyy1 equal ${tmp}
variable pyy1 equal 781.201648869916
variable tmp equal pzz
variable pzz1 equal ${tmp}
variable pzz1 equal -3505.4257082207
variable tmp equal pxy
variable pxy1 equal ${tmp}
variable pxy1 equal -854.853116539674
variable tmp equal pxz
variable pxz1 equal ${tmp}
variable pxz1 equal -1370.26830254317
variable tmp equal pyz
variable pyz1 equal ${tmp}
variable pyz1 equal 333.075360513431

# Compute elastic constant from pressure tensor

variable C1pos equal ${d1}
variable C1pos equal 25.5368816536451
variable C2pos equal ${d2}
variable C2pos equal 14.4455024339464
variable C3pos equal ${d3}
variable C3pos equal 33.8532098095856
variable C4pos equal ${d4}
variable C4pos equal 11.7435530931398
variable C5pos equal ${d5}
variable C5pos equal 6.08050538192438
variable C6pos equal ${d6}
variable C6pos equal 9.37553977267647

# Combine positive and negative

variable C1${dir} equal 0.5*(${C1neg}+${C1pos})
variable C13 equal 0.5*(${C1neg}+${C1pos})
variable C13 equal 0.5*(-9.1200841455872+${C1pos})
variable C13 equal 0.5*(-9.1200841455872+25.5368816536451)
variable C2${dir} equal 0.5*(${C2neg}+${C2pos})
variable C23 equal 0.5*(${C2neg}+${C2pos})
variable C23 equal 0.5*(-4.3138052091315+${C2pos})
variable C23 equal 0.5*(-4.3138052091315+14.4455024339464)
variable C3${dir} equal 0.5*(${C3neg}+${C3pos})
variable C33 equal 0.5*(${C3neg}+${C3pos})
variable C33 equal 0.5*(13.9979843879273+${C3pos})
variable C33 equal 0.5*(13.9979843879273+33.8532098095856)
variable C4${dir} equal 0.5*(${C4neg}+${C4pos})
variable C43 equal 0.5*(${C4neg}+${C4pos})
variable C43 equal 0.5*(-12.4943250989921+${C4pos})
variable C43 equal 0.5*(-12.4943250989921+11.7435530931398)
variable C5${dir} equal 0.5*(${C5neg}+${C5pos})
variable C53 equal 0.5*(${C5neg}+${C5pos})
variable C53 equal 0.5*(2.60784758929664+${C5pos})
variable C53 equal 0.5*(2.60784758929664+6.08050538192438)
variable C6${dir} equal 0.5*(${C6neg}+${C6pos})
variable C63 equal 0.5*(${C6neg}+${C6pos})
variable C63 equal 0.5*(-8.92611445932606+${C6pos})
variable C63 equal 0.5*(-8.92611445932606+9.37553977267647)

# Delete dir to make sure it is not reused

variable dir delete

# uyz Perturbation

variable dir equal 4
include ./input/displace_333-RV-32-vasp.mod
if "${dir} == 1" then    "variable len0 equal ${lx0}"
if "${dir} == 2" then    "variable len0 equal ${ly0}"
if "${dir} == 3" then    "variable len0 equal ${lz0}"
if "${dir} == 4" then    "variable len0 equal ${lz0}"
variable len0 equal ${lz0}
variable len0 equal 17.9458870842928
if "${dir} == 5" then    "variable len0 equal ${lz0}"
if "${dir} == 6" then    "variable len0 equal ${ly0}"

# Reset box and simulation parameters

clear
OMP_NUM_THREADS environment is not set. Defaulting to 1 thread.
  using 1 OpenMP thread(s) per MPI task
box tilt large

The 'box' command has been removed and will be ignored

read_restart restart_333-RV-32-vasp.equil
Reading restart file ...
  restart file = 10 Sep 2025, LAMMPS = 10 Sep 2025
  restoring atom style full from restart
  triclinic box = (-0.18372239 -0.2076062 -0.21054204) to (15.892454 13.294398 17.735345) with tilt (-8.4645428 -0.14928176 -2.0538006)
WARNING: Triclinic box skew is large. LAMMPS will run inefficiently. (src/domain.cpp:221)
  1 by 1 by 1 MPI processor grid
  restoring pair style lj/cut from restart
  restoring bond style harmonic from restart
  restoring angle style hybrid from restart
  restoring dihedral style harmonic from restart
  331 atoms
  336 bonds
  626 angles
  732 dihedrals
Finding 1-2 1-3 1-4 neighbors ...
  special bond factors lj:    0        0        1       
  special bond factors coul:  0        0        1       
     4 = max # of 1-2 neighbors
    10 = max # of 1-3 neighbors
    14 = max # of special neighbors
  special bonds CPU = 0.000 seconds
  read_restart CPU = 0.001 seconds
include ./input/angles_333-RV-32-vasp.mod
angle_style hybrid fourier cosine/periodic
angle_coeff 1 fourier 114.246973        0.343737        0.374972        0.281246
angle_coeff 2 fourier 157.882480        0.343737        0.374972        0.281246
angle_coeff 3 fourier 221.735285        0.343737        0.374972        0.281246
angle_coeff 4 fourier 58.020602        0.343737        0.374972        0.281246
angle_coeff 5 fourier 32.417871        0.343737        0.374972        0.281246
angle_coeff 6 fourier 83.380072        0.343737        0.374972        0.281246
angle_coeff 7 fourier 90.420412        0.343737        0.374972        0.281246
angle_coeff 8 fourier 75.498766        0.343737        0.374972        0.281246
angle_coeff 9 cosine/periodic 88.853997              -1               3

# Negative deformation

variable delta equal -${up}*${len0}
variable delta equal -0.02*${len0}
variable delta equal -0.02*17.9458870842928
variable deltaxy equal -${up}*xy
variable deltaxy equal -0.02*xy
variable deltaxz equal -${up}*xz
variable deltaxz equal -0.02*xz
variable deltayz equal -${up}*yz
variable deltayz equal -0.02*yz
if "${dir} == 1" then    "change_box all x delta 0 ${delta} xy delta ${deltaxy} xz delta ${deltaxz} remap units box"
if "${dir} == 2" then    "change_box all y delta 0 ${delta} yz delta ${deltayz} remap units box"
if "${dir} == 3" then    "change_box all z delta 0 ${delta} remap units box"
if "${dir} == 4" then    "change_box all yz delta ${delta} remap units box"
change_box all yz delta ${delta} remap units box
change_box all yz delta -0.358917741685856 remap units box
Changing box ...
WARNING: Triclinic box skew is large. LAMMPS will run inefficiently. (src/domain.cpp:221)
  triclinic box = (-0.18372239 -0.2076062 -0.21054204) to (15.892454 13.294398 17.735345) with tilt (-8.4645428 -0.14928176 -2.4127183)
if "${dir} == 5" then    "change_box all xz delta ${delta} remap units box"
if "${dir} == 6" then    "change_box all xy delta ${delta} remap units box"

# Relax atoms positions

minimize ${etol} ${ftol} ${maxiter} ${maxeval}
minimize 0 ${ftol} ${maxiter} ${maxeval}
minimize 0 1e-10 ${maxiter} ${maxeval}
minimize 0 1e-10 100000 ${maxeval}
minimize 0 1e-10 100000 100000
Generated 28 of 28 mixed pair_coeff terms from arithmetic mixing rule
Neighbor list info ...
  update: every = 1 steps, delay = 0 steps, check = yes
  max neighbors/atom: 2000, page size: 100000
  master list distance cutoff = 7
  ghost atom cutoff = 7
  binsize = 3.5, bins = 8 5 6
  1 neighbor lists, perpetual/occasional/extra = 1 0 0
  (1) pair lj/cut, perpetual
      attributes: half, newton on
      pair build: half/bin/newton/tri
      stencil: half/bin/3d/tri
      bin: standard
WARNING: Inconsistent image flags
For more information see https://docs.lammps.org/err0027 (src/domain.cpp:1052)
Per MPI rank memory allocation (min/avg/max) = 19.51 | 19.51 | 19.51 Mbytes
   Step          Temp          E_pair         E_mol          TotEng         Press     
    250429   297.91807     -411.15277      208.94061      90.840106      3734.5469    
    250470   297.91807     -437.55553      131.22343     -13.279828      672.54459    
Loop time of 0.0278994 on 1 procs for 41 steps with 331 atoms

100.0% CPU use with 1 MPI tasks x 1 OpenMP threads

Minimization stats:
  Stopping criterion = linesearch alpha is zero
  Energy initial, next-to-last, final = 
     -202.212164104884  -306.332098439437  -306.332098439437
  Force two-norm initial, final = 145.90985 20.699862
  Force max component initial, final = 15.139751 3.0192477
  Final line search alpha, max atom move = 1.4717774e-11 4.4436605e-11
  Iterations, force evaluations = 41 139

MPI task timing breakdown:
Section |  min time  |  avg time  |  max time  |%varavg| %total
---------------------------------------------------------------
Pair    | 0.02122    | 0.02122    | 0.02122    |   0.0 | 76.06
Bond    | 0.0053881  | 0.0053881  | 0.0053881  |   0.0 | 19.31
Neigh   | 0          | 0          | 0          |   0.0 |  0.00
Comm    | 0.00075195 | 0.00075195 | 0.00075195 |   0.0 |  2.70
Output  | 0          | 0          | 0          |   0.0 |  0.00
Modify  | 0          | 0          | 0          |   0.0 |  0.00
Other   |            | 0.0005396  |            |       |  1.93

Nlocal:            331 ave         331 max         331 min
Histogram: 1 0 0 0 0 0 0 0 0 0
Nghost:           2147 ave        2147 max        2147 min
Histogram: 1 0 0 0 0 0 0 0 0 0
Neighs:          19101 ave       19101 max       19101 min
Histogram: 1 0 0 0 0 0 0 0 0 0

Total # of neighbors = 19101
Ave neighs/atom = 57.706949
Ave special neighs/atom = 5.8126888
Neighbor list builds = 0
Dangerous builds = 0

# Obtain new stress tensor

variable tmp equal pxx
variable pxx1 equal ${tmp}
variable pxx1 equal -270.485654085031
variable tmp equal pyy
variable pyy1 equal ${tmp}
variable pyy1 equal 1474.5588969279
variable tmp equal pzz
variable pzz1 equal ${tmp}
variable pzz1 equal 813.560517263066
variable tmp equal pxy
variable pxy1 equal ${tmp}
variable pxy1 equal -677.98152978699
variable tmp equal pxz
variable pxz1 equal ${tmp}
variable pxz1 equal -158.786525839401
variable tmp equal pyz
variable pyz1 equal ${tmp}
variable pyz1 equal 907.196261364581

# Compute elastic constant from pressure tensor

variable C1neg equal ${d1}
variable C1neg equal -20.2685674853554
variable C2neg equal ${d2}
variable C2neg equal -10.9787161936565
variable C3neg equal ${d3}
variable C3neg equal -12.2582786821668
variable C4neg equal ${d4}
variable C4neg equal -8.87294858888404
variable C5neg equal ${d5}
variable C5neg equal -0.023096498405535
variable C6neg equal ${d6}
variable C6neg equal -8.49118183891305

# Reset box and simulation parameters

clear
OMP_NUM_THREADS environment is not set. Defaulting to 1 thread.
  using 1 OpenMP thread(s) per MPI task
box tilt large

The 'box' command has been removed and will be ignored

read_restart restart_333-RV-32-vasp.equil
Reading restart file ...
  restart file = 10 Sep 2025, LAMMPS = 10 Sep 2025
  restoring atom style full from restart
  triclinic box = (-0.18372239 -0.2076062 -0.21054204) to (15.892454 13.294398 17.735345) with tilt (-8.4645428 -0.14928176 -2.0538006)
WARNING: Triclinic box skew is large. LAMMPS will run inefficiently. (src/domain.cpp:221)
  1 by 1 by 1 MPI processor grid
  restoring pair style lj/cut from restart
  restoring bond style harmonic from restart
  restoring angle style hybrid from restart
  restoring dihedral style harmonic from restart
  331 atoms
  336 bonds
  626 angles
  732 dihedrals
Finding 1-2 1-3 1-4 neighbors ...
  special bond factors lj:    0        0        1       
  special bond factors coul:  0        0        1       
     4 = max # of 1-2 neighbors
    10 = max # of 1-3 neighbors
    14 = max # of special neighbors
  special bonds CPU = 0.000 seconds
  read_restart CPU = 0.001 seconds
include ./input/angles_333-RV-32-vasp.mod
angle_style hybrid fourier cosine/periodic
angle_coeff 1 fourier 114.246973        0.343737        0.374972        0.281246
angle_coeff 2 fourier 157.882480        0.343737        0.374972        0.281246
angle_coeff 3 fourier 221.735285        0.343737        0.374972        0.281246
angle_coeff 4 fourier 58.020602        0.343737        0.374972        0.281246
angle_coeff 5 fourier 32.417871        0.343737        0.374972        0.281246
angle_coeff 6 fourier 83.380072        0.343737        0.374972        0.281246
angle_coeff 7 fourier 90.420412        0.343737        0.374972        0.281246
angle_coeff 8 fourier 75.498766        0.343737        0.374972        0.281246
angle_coeff 9 cosine/periodic 88.853997              -1               3

# Positive deformation

variable delta equal ${up}*${len0}
variable delta equal 0.02*${len0}
variable delta equal 0.02*17.9458870842928
variable deltaxy equal ${up}*xy
variable deltaxy equal 0.02*xy
variable deltaxz equal ${up}*xz
variable deltaxz equal 0.02*xz
variable deltayz equal ${up}*yz
variable deltayz equal 0.02*yz
if "${dir} == 1" then    "change_box all x delta 0 ${delta} xy delta ${deltaxy} xz delta ${deltaxz} remap units box"
if "${dir} == 2" then    "change_box all y delta 0 ${delta} yz delta ${deltayz} remap units box"
if "${dir} == 3" then    "change_box all z delta 0 ${delta} remap units box"
if "${dir} == 4" then    "change_box all yz delta ${delta} remap units box"
change_box all yz delta ${delta} remap units box
change_box all yz delta 0.358917741685856 remap units box
Changing box ...
WARNING: Triclinic box skew is large. LAMMPS will run inefficiently. (src/domain.cpp:221)
  triclinic box = (-0.18372239 -0.2076062 -0.21054204) to (15.892454 13.294398 17.735345) with tilt (-8.4645428 -0.14928176 -1.6948828)
if "${dir} == 5" then    "change_box all xz delta ${delta} remap units box"
if "${dir} == 6" then    "change_box all xy delta ${delta} remap units box"

# Relax atoms positions

minimize ${etol} ${ftol} ${maxiter} ${maxeval}
minimize 0 ${ftol} ${maxiter} ${maxeval}
minimize 0 1e-10 ${maxiter} ${maxeval}
minimize 0 1e-10 100000 ${maxeval}
minimize 0 1e-10 100000 100000
Generated 28 of 28 mixed pair_coeff terms from arithmetic mixing rule
Neighbor list info ...
  update: every = 1 steps, delay = 0 steps, check = yes
  max neighbors/atom: 2000, page size: 100000
  master list distance cutoff = 7
  ghost atom cutoff = 7
  binsize = 3.5, bins = 8 5 6
  1 neighbor lists, perpetual/occasional/extra = 1 0 0
  (1) pair lj/cut, perpetual
      attributes: half, newton on
      pair build: half/bin/newton/tri
      stencil: half/bin/3d/tri
      bin: standard
WARNING: Inconsistent image flags
For more information see https://docs.lammps.org/err0027 (src/domain.cpp:1052)
Per MPI rank memory allocation (min/avg/max) = 19.51 | 19.51 | 19.51 Mbytes
   Step          Temp          E_pair         E_mol          TotEng         Press     
    250429   297.91807     -411.6769       203.235        84.610372      3034.9496    
    250469   297.91807     -436.35694      130.43705     -12.867618      727.58134    
Loop time of 0.0271445 on 1 procs for 40 steps with 331 atoms

100.0% CPU use with 1 MPI tasks x 1 OpenMP threads

Minimization stats:
  Stopping criterion = linesearch alpha is zero
  Energy initial, next-to-last, final = 
     -208.441898395212  -305.919888321603  -305.919888321603
  Force two-norm initial, final = 146.71585 20.974118
  Force max component initial, final = 16.549034 3.0264832
  Final line search alpha, max atom move = 1.4828469e-11 4.4878112e-11
  Iterations, force evaluations = 40 137

MPI task timing breakdown:
Section |  min time  |  avg time  |  max time  |%varavg| %total
---------------------------------------------------------------
Pair    | 0.020613   | 0.020613   | 0.020613   |   0.0 | 75.94
Bond    | 0.0053013  | 0.0053013  | 0.0053013  |   0.0 | 19.53
Neigh   | 0          | 0          | 0          |   0.0 |  0.00
Comm    | 0.00071104 | 0.00071104 | 0.00071104 |   0.0 |  2.62
Output  | 0          | 0          | 0          |   0.0 |  0.00
Modify  | 0          | 0          | 0          |   0.0 |  0.00
Other   |            | 0.000519   |            |       |  1.91

Nlocal:            331 ave         331 max         331 min
Histogram: 1 0 0 0 0 0 0 0 0 0
Nghost:           2143 ave        2143 max        2143 min
Histogram: 1 0 0 0 0 0 0 0 0 0
Neighs:          19127 ave       19127 max       19127 min
Histogram: 1 0 0 0 0 0 0 0 0 0

Total # of neighbors = 19127
Ave neighs/atom = 57.785498
Ave special neighs/atom = 5.8126888
Neighbor list builds = 0
Dangerous builds = 0

# Obtain new stress tensor

variable tmp equal pe
variable e1 equal ${tmp}
variable e1 equal -305.919888321603
variable tmp equal press
variable p1 equal ${tmp}
variable p1 equal 727.581339654515
variable tmp equal pxx
variable pxx1 equal ${tmp}
variable pxx1 equal 108.015533816029
variable tmp equal pyy
variable pyy1 equal ${tmp}
variable pyy1 equal 1367.30220119734
variable tmp equal pzz
variable pzz1 equal ${tmp}
variable pzz1 equal 707.426283950172
variable tmp equal pxy
variable pxy1 equal ${tmp}
variable pxy1 equal -922.973008792235
variable tmp equal pxz
variable pxz1 equal ${tmp}
variable pxz1 equal -410.23835617809
variable tmp equal pyz
variable pyz1 equal ${tmp}
variable pyz1 equal -419.398288056339

# Compute elastic constant from pressure tensor

variable C1pos equal ${d1}
variable C1pos equal 18.3760615458501
variable C2pos equal ${d2}
variable C2pos equal 11.5149996723092
variable C3pos equal ${d3}
variable C3pos equal 12.7889498487313
variable C4pos equal ${d4}
variable C4pos equal 15.5059213359886
variable C5pos equal ${d5}
variable C5pos equal 1.28035565009898
variable C6pos equal ${d6}
variable C6pos equal 9.71613923393928

# Combine positive and negative

variable C1${dir} equal 0.5*(${C1neg}+${C1pos})
variable C14 equal 0.5*(${C1neg}+${C1pos})
variable C14 equal 0.5*(-20.2685674853554+${C1pos})
variable C14 equal 0.5*(-20.2685674853554+18.3760615458501)
variable C2${dir} equal 0.5*(${C2neg}+${C2pos})
variable C24 equal 0.5*(${C2neg}+${C2pos})
variable C24 equal 0.5*(-10.9787161936565+${C2pos})
variable C24 equal 0.5*(-10.9787161936565+11.5149996723092)
variable C3${dir} equal 0.5*(${C3neg}+${C3pos})
variable C34 equal 0.5*(${C3neg}+${C3pos})
variable C34 equal 0.5*(-12.2582786821668+${C3pos})
variable C34 equal 0.5*(-12.2582786821668+12.7889498487313)
variable C4${dir} equal 0.5*(${C4neg}+${C4pos})
variable C44 equal 0.5*(${C4neg}+${C4pos})
variable C44 equal 0.5*(-8.87294858888404+${C4pos})
variable C44 equal 0.5*(-8.87294858888404+15.5059213359886)
variable C5${dir} equal 0.5*(${C5neg}+${C5pos})
variable C54 equal 0.5*(${C5neg}+${C5pos})
variable C54 equal 0.5*(-0.023096498405535+${C5pos})
variable C54 equal 0.5*(-0.023096498405535+1.28035565009898)
variable C6${dir} equal 0.5*(${C6neg}+${C6pos})
variable C64 equal 0.5*(${C6neg}+${C6pos})
variable C64 equal 0.5*(-8.49118183891305+${C6pos})
variable C64 equal 0.5*(-8.49118183891305+9.71613923393928)

# Delete dir to make sure it is not reused

variable dir delete

# uxz Perturbation

variable dir equal 5
include ./input/displace_333-RV-32-vasp.mod
if "${dir} == 1" then    "variable len0 equal ${lx0}"
if "${dir} == 2" then    "variable len0 equal ${ly0}"
if "${dir} == 3" then    "variable len0 equal ${lz0}"
if "${dir} == 4" then    "variable len0 equal ${lz0}"
if "${dir} == 5" then    "variable len0 equal ${lz0}"
variable len0 equal ${lz0}
variable len0 equal 17.9458870842928
if "${dir} == 6" then    "variable len0 equal ${ly0}"

# Reset box and simulation parameters

clear
OMP_NUM_THREADS environment is not set. Defaulting to 1 thread.
  using 1 OpenMP thread(s) per MPI task
box tilt large

The 'box' command has been removed and will be ignored

read_restart restart_333-RV-32-vasp.equil
Reading restart file ...
  restart file = 10 Sep 2025, LAMMPS = 10 Sep 2025
  restoring atom style full from restart
  triclinic box = (-0.18372239 -0.2076062 -0.21054204) to (15.892454 13.294398 17.735345) with tilt (-8.4645428 -0.14928176 -2.0538006)
WARNING: Triclinic box skew is large. LAMMPS will run inefficiently. (src/domain.cpp:221)
  1 by 1 by 1 MPI processor grid
  restoring pair style lj/cut from restart
  restoring bond style harmonic from restart
  restoring angle style hybrid from restart
  restoring dihedral style harmonic from restart
  331 atoms
  336 bonds
  626 angles
  732 dihedrals
Finding 1-2 1-3 1-4 neighbors ...
  special bond factors lj:    0        0        1       
  special bond factors coul:  0        0        1       
     4 = max # of 1-2 neighbors
    10 = max # of 1-3 neighbors
    14 = max # of special neighbors
  special bonds CPU = 0.000 seconds
  read_restart CPU = 0.001 seconds
include ./input/angles_333-RV-32-vasp.mod
angle_style hybrid fourier cosine/periodic
angle_coeff 1 fourier 114.246973        0.343737        0.374972        0.281246
angle_coeff 2 fourier 157.882480        0.343737        0.374972        0.281246
angle_coeff 3 fourier 221.735285        0.343737        0.374972        0.281246
angle_coeff 4 fourier 58.020602        0.343737        0.374972        0.281246
angle_coeff 5 fourier 32.417871        0.343737        0.374972        0.281246
angle_coeff 6 fourier 83.380072        0.343737        0.374972        0.281246
angle_coeff 7 fourier 90.420412        0.343737        0.374972        0.281246
angle_coeff 8 fourier 75.498766        0.343737        0.374972        0.281246
angle_coeff 9 cosine/periodic 88.853997              -1               3

# Negative deformation

variable delta equal -${up}*${len0}
variable delta equal -0.02*${len0}
variable delta equal -0.02*17.9458870842928
variable deltaxy equal -${up}*xy
variable deltaxy equal -0.02*xy
variable deltaxz equal -${up}*xz
variable deltaxz equal -0.02*xz
variable deltayz equal -${up}*yz
variable deltayz equal -0.02*yz
if "${dir} == 1" then    "change_box all x delta 0 ${delta} xy delta ${deltaxy} xz delta ${deltaxz} remap units box"
if "${dir} == 2" then    "change_box all y delta 0 ${delta} yz delta ${deltayz} remap units box"
if "${dir} == 3" then    "change_box all z delta 0 ${delta} remap units box"
if "${dir} == 4" then    "change_box all yz delta ${delta} remap units box"
if "${dir} == 5" then    "change_box all xz delta ${delta} remap units box"
change_box all xz delta ${delta} remap units box
change_box all xz delta -0.358917741685856 remap units box
Changing box ...
WARNING: Triclinic box skew is large. LAMMPS will run inefficiently. (src/domain.cpp:221)
  triclinic box = (-0.18372239 -0.2076062 -0.21054204) to (15.892454 13.294398 17.735345) with tilt (-8.4645428 -0.5081995 -2.0538006)
if "${dir} == 6" then    "change_box all xy delta ${delta} remap units box"

# Relax atoms positions

minimize ${etol} ${ftol} ${maxiter} ${maxeval}
minimize 0 ${ftol} ${maxiter} ${maxeval}
minimize 0 1e-10 ${maxiter} ${maxeval}
minimize 0 1e-10 100000 ${maxeval}
minimize 0 1e-10 100000 100000
Generated 28 of 28 mixed pair_coeff terms from arithmetic mixing rule
Neighbor list info ...
  update: every = 1 steps, delay = 0 steps, check = yes
  max neighbors/atom: 2000, page size: 100000
  master list distance cutoff = 7
  ghost atom cutoff = 7
  binsize = 3.5, bins = 8 5 6
  1 neighbor lists, perpetual/occasional/extra = 1 0 0
  (1) pair lj/cut, perpetual
      attributes: half, newton on
      pair build: half/bin/newton/tri
      stencil: half/bin/3d/tri
      bin: standard
WARNING: Inconsistent image flags
For more information see https://docs.lammps.org/err0027 (src/domain.cpp:1052)
Per MPI rank memory allocation (min/avg/max) = 19.51 | 19.51 | 19.51 Mbytes
   Step          Temp          E_pair         E_mol          TotEng         Press     
    250429   297.91807     -411.05925      206.65865      88.651674      3580.522     
    250471   297.91807     -436.46988      129.6323      -13.78531       1073.4912    
Loop time of 0.0273366 on 1 procs for 42 steps with 331 atoms

100.0% CPU use with 1 MPI tasks x 1 OpenMP threads

Minimization stats:
  Stopping criterion = linesearch alpha is zero
  Energy initial, next-to-last, final = 
     -204.400596160772  -306.837580593844  -306.837580593844
  Force two-norm initial, final = 152.9405 19.825531
  Force max component initial, final = 18.560417 3.9782204
  Final line search alpha, max atom move = 2.9607461e-11 1.17785e-10
  Iterations, force evaluations = 42 139

MPI task timing breakdown:
Section |  min time  |  avg time  |  max time  |%varavg| %total
---------------------------------------------------------------
Pair    | 0.020732   | 0.020732   | 0.020732   |   0.0 | 75.84
Bond    | 0.0053302  | 0.0053302  | 0.0053302  |   0.0 | 19.50
Neigh   | 0          | 0          | 0          |   0.0 |  0.00
Comm    | 0.00073738 | 0.00073738 | 0.00073738 |   0.0 |  2.70
Output  | 0          | 0          | 0          |   0.0 |  0.00
Modify  | 0          | 0          | 0          |   0.0 |  0.00
Other   |            | 0.000537   |            |       |  1.96

Nlocal:            331 ave         331 max         331 min
Histogram: 1 0 0 0 0 0 0 0 0 0
Nghost:           2149 ave        2149 max        2149 min
Histogram: 1 0 0 0 0 0 0 0 0 0
Neighs:          19119 ave       19119 max       19119 min
Histogram: 1 0 0 0 0 0 0 0 0 0

Total # of neighbors = 19119
Ave neighs/atom = 57.761329
Ave special neighs/atom = 5.8126888
Neighbor list builds = 0
Dangerous builds = 0

# Obtain new stress tensor

variable tmp equal pxx
variable pxx1 equal ${tmp}
variable pxx1 equal 187.625514504181
variable tmp equal pyy
variable pyy1 equal ${tmp}
variable pyy1 equal 1776.34512307036
variable tmp equal pzz
variable pzz1 equal ${tmp}
variable pzz1 equal 1256.50291092136
variable tmp equal pxy
variable pxy1 equal ${tmp}
variable pxy1 equal -891.710969507073
variable tmp equal pxz
variable pxz1 equal ${tmp}
variable pxz1 equal 907.654149812703
variable tmp equal pyz
variable pyz1 equal ${tmp}
variable pyz1 equal 159.119376247525

# Compute elastic constant from pressure tensor

variable C1neg equal ${d1}
variable C1neg equal -17.9780116424093
variable C2neg equal ${d2}
variable C2neg equal -9.46978506294415
variable C3neg equal ${d3}
variable C3neg equal -10.0435667138754
variable C4neg equal ${d4}
variable C4neg equal -12.6133330144693
variable C5neg equal ${d5}
variable C5neg equal 5.30910687985499
variable C6neg equal ${d6}
variable C6neg equal -9.55982903751346

# Reset box and simulation parameters

clear
OMP_NUM_THREADS environment is not set. Defaulting to 1 thread.
  using 1 OpenMP thread(s) per MPI task
box tilt large

The 'box' command has been removed and will be ignored

read_restart restart_333-RV-32-vasp.equil
Reading restart file ...
  restart file = 10 Sep 2025, LAMMPS = 10 Sep 2025
  restoring atom style full from restart
  triclinic box = (-0.18372239 -0.2076062 -0.21054204) to (15.892454 13.294398 17.735345) with tilt (-8.4645428 -0.14928176 -2.0538006)
WARNING: Triclinic box skew is large. LAMMPS will run inefficiently. (src/domain.cpp:221)
  1 by 1 by 1 MPI processor grid
  restoring pair style lj/cut from restart
  restoring bond style harmonic from restart
  restoring angle style hybrid from restart
  restoring dihedral style harmonic from restart
  331 atoms
  336 bonds
  626 angles
  732 dihedrals
Finding 1-2 1-3 1-4 neighbors ...
  special bond factors lj:    0        0        1       
  special bond factors coul:  0        0        1       
     4 = max # of 1-2 neighbors
    10 = max # of 1-3 neighbors
    14 = max # of special neighbors
  special bonds CPU = 0.000 seconds
  read_restart CPU = 0.001 seconds
include ./input/angles_333-RV-32-vasp.mod
angle_style hybrid fourier cosine/periodic
angle_coeff 1 fourier 114.246973        0.343737        0.374972        0.281246
angle_coeff 2 fourier 157.882480        0.343737        0.374972        0.281246
angle_coeff 3 fourier 221.735285        0.343737        0.374972        0.281246
angle_coeff 4 fourier 58.020602        0.343737        0.374972        0.281246
angle_coeff 5 fourier 32.417871        0.343737        0.374972        0.281246
angle_coeff 6 fourier 83.380072        0.343737        0.374972        0.281246
angle_coeff 7 fourier 90.420412        0.343737        0.374972        0.281246
angle_coeff 8 fourier 75.498766        0.343737        0.374972        0.281246
angle_coeff 9 cosine/periodic 88.853997              -1               3

# Positive deformation

variable delta equal ${up}*${len0}
variable delta equal 0.02*${len0}
variable delta equal 0.02*17.9458870842928
variable deltaxy equal ${up}*xy
variable deltaxy equal 0.02*xy
variable deltaxz equal ${up}*xz
variable deltaxz equal 0.02*xz
variable deltayz equal ${up}*yz
variable deltayz equal 0.02*yz
if "${dir} == 1" then    "change_box all x delta 0 ${delta} xy delta ${deltaxy} xz delta ${deltaxz} remap units box"
if "${dir} == 2" then    "change_box all y delta 0 ${delta} yz delta ${deltayz} remap units box"
if "${dir} == 3" then    "change_box all z delta 0 ${delta} remap units box"
if "${dir} == 4" then    "change_box all yz delta ${delta} remap units box"
if "${dir} == 5" then    "change_box all xz delta ${delta} remap units box"
change_box all xz delta ${delta} remap units box
change_box all xz delta 0.358917741685856 remap units box
Changing box ...
WARNING: Triclinic box skew is large. LAMMPS will run inefficiently. (src/domain.cpp:221)
  triclinic box = (-0.18372239 -0.2076062 -0.21054204) to (15.892454 13.294398 17.735345) with tilt (-8.4645428 0.20963598 -2.0538006)
if "${dir} == 6" then    "change_box all xy delta ${delta} remap units box"

# Relax atoms positions

minimize ${etol} ${ftol} ${maxiter} ${maxeval}
minimize 0 ${ftol} ${maxiter} ${maxeval}
minimize 0 1e-10 ${maxiter} ${maxeval}
minimize 0 1e-10 100000 ${maxeval}
minimize 0 1e-10 100000 100000
Generated 28 of 28 mixed pair_coeff terms from arithmetic mixing rule
Neighbor list info ...
  update: every = 1 steps, delay = 0 steps, check = yes
  max neighbors/atom: 2000, page size: 100000
  master list distance cutoff = 7
  ghost atom cutoff = 7
  binsize = 3.5, bins = 8 5 6
  1 neighbor lists, perpetual/occasional/extra = 1 0 0
  (1) pair lj/cut, perpetual
      attributes: half, newton on
      pair build: half/bin/newton/tri
      stencil: half/bin/3d/tri
      bin: standard
WARNING: Inconsistent image flags
For more information see https://docs.lammps.org/err0027 (src/domain.cpp:1052)
Per MPI rank memory allocation (min/avg/max) = 19.51 | 19.51 | 19.51 Mbytes
   Step          Temp          E_pair         E_mol          TotEng         Press     
    250429   297.91807     -411.12422      206.43853      88.366574      3194.3983    
    250463   297.91807     -437.00638      133.38146     -10.572642      318.92441    
Loop time of 0.0265009 on 1 procs for 34 steps with 331 atoms

100.0% CPU use with 1 MPI tasks x 1 OpenMP threads

Minimization stats:
  Stopping criterion = linesearch alpha is zero
  Energy initial, next-to-last, final = 
     -204.685696346465  -303.624912657403  -303.624912657403
  Force two-norm initial, final = 151.88561 22.84032
  Force max component initial, final = 14.482328 4.1179096
  Final line search alpha, max atom move = 1.7269808e-11 7.1115508e-11
  Iterations, force evaluations = 34 125

MPI task timing breakdown:
Section |  min time  |  avg time  |  max time  |%varavg| %total
---------------------------------------------------------------
Pair    | 0.020032   | 0.020032   | 0.020032   |   0.0 | 75.59
Bond    | 0.0052265  | 0.0052265  | 0.0052265  |   0.0 | 19.72
Neigh   | 0          | 0          | 0          |   0.0 |  0.00
Comm    | 0.00071088 | 0.00071088 | 0.00071088 |   0.0 |  2.68
Output  | 0          | 0          | 0          |   0.0 |  0.00
Modify  | 0          | 0          | 0          |   0.0 |  0.00
Other   |            | 0.0005313  |            |       |  2.00

Nlocal:            331 ave         331 max         331 min
Histogram: 1 0 0 0 0 0 0 0 0 0
Nghost:           2147 ave        2147 max        2147 min
Histogram: 1 0 0 0 0 0 0 0 0 0
Neighs:          19109 ave       19109 max       19109 min
Histogram: 1 0 0 0 0 0 0 0 0 0

Total # of neighbors = 19109
Ave neighs/atom = 57.731118
Ave special neighs/atom = 5.8126888
Neighbor list builds = 0
Dangerous builds = 0

# Obtain new stress tensor

variable tmp equal pe
variable e1 equal ${tmp}
variable e1 equal -303.624912657403
variable tmp equal press
variable p1 equal ${tmp}
variable p1 equal 318.924411821379
variable tmp equal pxx
variable pxx1 equal ${tmp}
variable pxx1 equal -362.927751004469
variable tmp equal pyy
variable pyy1 equal ${tmp}
variable pyy1 equal 1585.2461534502
variable tmp equal pzz
variable pzz1 equal ${tmp}
variable pzz1 equal -265.545166981592
variable tmp equal pxy
variable pxy1 equal ${tmp}
variable pxy1 equal -776.593460266101
variable tmp equal pxz
variable pxz1 equal ${tmp}
variable pxz1 equal -2037.92997179328
variable tmp equal pyz
variable pyz1 equal ${tmp}
variable pyz1 equal 560.763657282312

# Compute elastic constant from pressure tensor

variable C1pos equal ${d1}
variable C1pos equal 20.7307779699525
variable C2pos equal ${d2}
variable C2pos equal 10.4252799110449
variable C3pos equal ${d3}
variable C3pos equal 17.6538071033901
variable C4pos equal ${d4}
variable C4pos equal 10.6051116092954
variable C5pos equal ${d5}
variable C5pos equal 9.41881372817493
variable C6pos equal ${d6}
variable C6pos equal 8.98424149130861

# Combine positive and negative

variable C1${dir} equal 0.5*(${C1neg}+${C1pos})
variable C15 equal 0.5*(${C1neg}+${C1pos})
variable C15 equal 0.5*(-17.9780116424093+${C1pos})
variable C15 equal 0.5*(-17.9780116424093+20.7307779699525)
variable C2${dir} equal 0.5*(${C2neg}+${C2pos})
variable C25 equal 0.5*(${C2neg}+${C2pos})
variable C25 equal 0.5*(-9.46978506294415+${C2pos})
variable C25 equal 0.5*(-9.46978506294415+10.4252799110449)
variable C3${dir} equal 0.5*(${C3neg}+${C3pos})
variable C35 equal 0.5*(${C3neg}+${C3pos})
variable C35 equal 0.5*(-10.0435667138754+${C3pos})
variable C35 equal 0.5*(-10.0435667138754+17.6538071033901)
variable C4${dir} equal 0.5*(${C4neg}+${C4pos})
variable C45 equal 0.5*(${C4neg}+${C4pos})
variable C45 equal 0.5*(-12.6133330144693+${C4pos})
variable C45 equal 0.5*(-12.6133330144693+10.6051116092954)
variable C5${dir} equal 0.5*(${C5neg}+${C5pos})
variable C55 equal 0.5*(${C5neg}+${C5pos})
variable C55 equal 0.5*(5.30910687985499+${C5pos})
variable C55 equal 0.5*(5.30910687985499+9.41881372817493)
variable C6${dir} equal 0.5*(${C6neg}+${C6pos})
variable C65 equal 0.5*(${C6neg}+${C6pos})
variable C65 equal 0.5*(-9.55982903751346+${C6pos})
variable C65 equal 0.5*(-9.55982903751346+8.98424149130861)

# Delete dir to make sure it is not reused

variable dir delete

# uxy Perturbation

variable dir equal 6
include ./input/displace_333-RV-32-vasp.mod
if "${dir} == 1" then    "variable len0 equal ${lx0}"
if "${dir} == 2" then    "variable len0 equal ${ly0}"
if "${dir} == 3" then    "variable len0 equal ${lz0}"
if "${dir} == 4" then    "variable len0 equal ${lz0}"
if "${dir} == 5" then    "variable len0 equal ${lz0}"
if "${dir} == 6" then    "variable len0 equal ${ly0}"
variable len0 equal ${ly0}
variable len0 equal 13.5020044066054

# Reset box and simulation parameters

clear
OMP_NUM_THREADS environment is not set. Defaulting to 1 thread.
  using 1 OpenMP thread(s) per MPI task
box tilt large

The 'box' command has been removed and will be ignored

read_restart restart_333-RV-32-vasp.equil
Reading restart file ...
  restart file = 10 Sep 2025, LAMMPS = 10 Sep 2025
  restoring atom style full from restart
  triclinic box = (-0.18372239 -0.2076062 -0.21054204) to (15.892454 13.294398 17.735345) with tilt (-8.4645428 -0.14928176 -2.0538006)
WARNING: Triclinic box skew is large. LAMMPS will run inefficiently. (src/domain.cpp:221)
  1 by 1 by 1 MPI processor grid
  restoring pair style lj/cut from restart
  restoring bond style harmonic from restart
  restoring angle style hybrid from restart
  restoring dihedral style harmonic from restart
  331 atoms
  336 bonds
  626 angles
  732 dihedrals
Finding 1-2 1-3 1-4 neighbors ...
  special bond factors lj:    0        0        1       
  special bond factors coul:  0        0        1       
     4 = max # of 1-2 neighbors
    10 = max # of 1-3 neighbors
    14 = max # of special neighbors
  special bonds CPU = 0.000 seconds
  read_restart CPU = 0.001 seconds
include ./input/angles_333-RV-32-vasp.mod
angle_style hybrid fourier cosine/periodic
angle_coeff 1 fourier 114.246973        0.343737        0.374972        0.281246
angle_coeff 2 fourier 157.882480        0.343737        0.374972        0.281246
angle_coeff 3 fourier 221.735285        0.343737        0.374972        0.281246
angle_coeff 4 fourier 58.020602        0.343737        0.374972        0.281246
angle_coeff 5 fourier 32.417871        0.343737        0.374972        0.281246
angle_coeff 6 fourier 83.380072        0.343737        0.374972        0.281246
angle_coeff 7 fourier 90.420412        0.343737        0.374972        0.281246
angle_coeff 8 fourier 75.498766        0.343737        0.374972        0.281246
angle_coeff 9 cosine/periodic 88.853997              -1               3

# Negative deformation

variable delta equal -${up}*${len0}
variable delta equal -0.02*${len0}
variable delta equal -0.02*13.5020044066054
variable deltaxy equal -${up}*xy
variable deltaxy equal -0.02*xy
variable deltaxz equal -${up}*xz
variable deltaxz equal -0.02*xz
variable deltayz equal -${up}*yz
variable deltayz equal -0.02*yz
if "${dir} == 1" then    "change_box all x delta 0 ${delta} xy delta ${deltaxy} xz delta ${deltaxz} remap units box"
if "${dir} == 2" then    "change_box all y delta 0 ${delta} yz delta ${deltayz} remap units box"
if "${dir} == 3" then    "change_box all z delta 0 ${delta} remap units box"
if "${dir} == 4" then    "change_box all yz delta ${delta} remap units box"
if "${dir} == 5" then    "change_box all xz delta ${delta} remap units box"
if "${dir} == 6" then    "change_box all xy delta ${delta} remap units box"
change_box all xy delta ${delta} remap units box
change_box all xy delta -0.270040088132108 remap units box
Changing box ...
WARNING: Triclinic box skew is large. LAMMPS will run inefficiently. (src/domain.cpp:221)
  triclinic box = (-0.18372239 -0.2076062 -0.21054204) to (15.892454 13.294398 17.735345) with tilt (-8.7345829 -0.14928176 -2.0538006)

# Relax atoms positions

minimize ${etol} ${ftol} ${maxiter} ${maxeval}
minimize 0 ${ftol} ${maxiter} ${maxeval}
minimize 0 1e-10 ${maxiter} ${maxeval}
minimize 0 1e-10 100000 ${maxeval}
minimize 0 1e-10 100000 100000
Generated 28 of 28 mixed pair_coeff terms from arithmetic mixing rule
Neighbor list info ...
  update: every = 1 steps, delay = 0 steps, check = yes
  max neighbors/atom: 2000, page size: 100000
  master list distance cutoff = 7
  ghost atom cutoff = 7
  binsize = 3.5, bins = 8 5 6
  1 neighbor lists, perpetual/occasional/extra = 1 0 0
  (1) pair lj/cut, perpetual
      attributes: half, newton on
      pair build: half/bin/newton/tri
      stencil: half/bin/3d/tri
      bin: standard
WARNING: Inconsistent image flags
For more information see https://docs.lammps.org/err0027 (src/domain.cpp:1052)
Per MPI rank memory allocation (min/avg/max) = 19.51 | 19.51 | 19.51 Mbytes
   Step          Temp          E_pair         E_mol          TotEng         Press     
    250429   297.91807     -411.5487       207.05899      88.562561      3703.6288    
    250487   297.91807     -439.80481      129.27358     -17.478955      77.983566    
Loop time of 0.0370083 on 1 procs for 58 steps with 331 atoms

100.0% CPU use with 1 MPI tasks x 1 OpenMP threads

Minimization stats:
  Stopping criterion = linesearch alpha is zero
  Energy initial, next-to-last, final = 
     -204.489709270653  -310.531225466905  -310.531225466905
  Force two-norm initial, final = 151.49001 13.779366
  Force max component initial, final = 14.251876 2.4255853
  Final line search alpha, max atom move = 6.2336265e-11 1.5120193e-10
  Iterations, force evaluations = 58 169

MPI task timing breakdown:
Section |  min time  |  avg time  |  max time  |%varavg| %total
---------------------------------------------------------------
Pair    | 0.026354   | 0.026354   | 0.026354   |   0.0 | 71.21
Bond    | 0.0067349  | 0.0067349  | 0.0067349  |   0.0 | 18.20
Neigh   | 0.0021964  | 0.0021964  | 0.0021964  |   0.0 |  5.93
Comm    | 0.00098264 | 0.00098264 | 0.00098264 |   0.0 |  2.66
Output  | 0          | 0          | 0          |   0.0 |  0.00
Modify  | 0          | 0          | 0          |   0.0 |  0.00
Other   |            | 0.0007405  |            |       |  2.00

Nlocal:            331 ave         331 max         331 min
Histogram: 1 0 0 0 0 0 0 0 0 0
Nghost:           2155 ave        2155 max        2155 min
Histogram: 1 0 0 0 0 0 0 0 0 0
Neighs:          19113 ave       19113 max       19113 min
Histogram: 1 0 0 0 0 0 0 0 0 0

Total # of neighbors = 19113
Ave neighs/atom = 57.743202
Ave special neighs/atom = 5.8126888
Neighbor list builds = 1
Dangerous builds = 0

# Obtain new stress tensor

variable tmp equal pxx
variable pxx1 equal ${tmp}
variable pxx1 equal -1321.02992539657
variable tmp equal pyy
variable pyy1 equal ${tmp}
variable pyy1 equal 922.940820612509
variable tmp equal pzz
variable pzz1 equal ${tmp}
variable pzz1 equal 632.039801916118
variable tmp equal pxy
variable pxy1 equal ${tmp}
variable pxy1 equal 213.18450358226
variable tmp equal pxz
variable pxz1 equal ${tmp}
variable pxz1 equal 434.563003236023
variable tmp equal pyz
variable pyz1 equal ${tmp}
variable pyz1 equal 273.726270767536

# Compute elastic constant from pressure tensor

variable C1neg equal ${d1}
variable C1neg equal -25.521288841913
variable C2neg equal ${d2}
variable C2neg equal -13.7368065752334
variable C3neg equal ${d3}
variable C3neg equal -13.1658822589016
variable C4neg equal ${d4}
variable C4neg equal -12.0402985418693
variable C5neg equal ${d5}
variable C5neg equal 2.94365114697159
variable C6neg equal ${d6}
variable C6neg equal -4.0353516720668

# Reset box and simulation parameters

clear
OMP_NUM_THREADS environment is not set. Defaulting to 1 thread.
  using 1 OpenMP thread(s) per MPI task
box tilt large

The 'box' command has been removed and will be ignored

read_restart restart_333-RV-32-vasp.equil
Reading restart file ...
  restart file = 10 Sep 2025, LAMMPS = 10 Sep 2025
  restoring atom style full from restart
  triclinic box = (-0.18372239 -0.2076062 -0.21054204) to (15.892454 13.294398 17.735345) with tilt (-8.4645428 -0.14928176 -2.0538006)
WARNING: Triclinic box skew is large. LAMMPS will run inefficiently. (src/domain.cpp:221)
  1 by 1 by 1 MPI processor grid
  restoring pair style lj/cut from restart
  restoring bond style harmonic from restart
  restoring angle style hybrid from restart
  restoring dihedral style harmonic from restart
  331 atoms
  336 bonds
  626 angles
  732 dihedrals
Finding 1-2 1-3 1-4 neighbors ...
  special bond factors lj:    0        0        1       
  special bond factors coul:  0        0        1       
     4 = max # of 1-2 neighbors
    10 = max # of 1-3 neighbors
    14 = max # of special neighbors
  special bonds CPU = 0.000 seconds
  read_restart CPU = 0.001 seconds
include ./input/angles_333-RV-32-vasp.mod
angle_style hybrid fourier cosine/periodic
angle_coeff 1 fourier 114.246973        0.343737        0.374972        0.281246
angle_coeff 2 fourier 157.882480        0.343737        0.374972        0.281246
angle_coeff 3 fourier 221.735285        0.343737        0.374972        0.281246
angle_coeff 4 fourier 58.020602        0.343737        0.374972        0.281246
angle_coeff 5 fourier 32.417871        0.343737        0.374972        0.281246
angle_coeff 6 fourier 83.380072        0.343737        0.374972        0.281246
angle_coeff 7 fourier 90.420412        0.343737        0.374972        0.281246
angle_coeff 8 fourier 75.498766        0.343737        0.374972        0.281246
angle_coeff 9 cosine/periodic 88.853997              -1               3

# Positive deformation

variable delta equal ${up}*${len0}
variable delta equal 0.02*${len0}
variable delta equal 0.02*13.5020044066054
variable deltaxy equal ${up}*xy
variable deltaxy equal 0.02*xy
variable deltaxz equal ${up}*xz
variable deltaxz equal 0.02*xz
variable deltayz equal ${up}*yz
variable deltayz equal 0.02*yz
if "${dir} == 1" then    "change_box all x delta 0 ${delta} xy delta ${deltaxy} xz delta ${deltaxz} remap units box"
if "${dir} == 2" then    "change_box all y delta 0 ${delta} yz delta ${deltayz} remap units box"
if "${dir} == 3" then    "change_box all z delta 0 ${delta} remap units box"
if "${dir} == 4" then    "change_box all yz delta ${delta} remap units box"
if "${dir} == 5" then    "change_box all xz delta ${delta} remap units box"
if "${dir} == 6" then    "change_box all xy delta ${delta} remap units box"
change_box all xy delta ${delta} remap units box
change_box all xy delta 0.270040088132108 remap units box
Changing box ...
WARNING: Triclinic box skew is large. LAMMPS will run inefficiently. (src/domain.cpp:221)
  triclinic box = (-0.18372239 -0.2076062 -0.21054204) to (15.892454 13.294398 17.735345) with tilt (-8.1945028 -0.14928176 -2.0538006)

# Relax atoms positions

minimize ${etol} ${ftol} ${maxiter} ${maxeval}
minimize 0 ${ftol} ${maxiter} ${maxeval}
minimize 0 1e-10 ${maxiter} ${maxeval}
minimize 0 1e-10 100000 ${maxeval}
minimize 0 1e-10 100000 100000
Generated 28 of 28 mixed pair_coeff terms from arithmetic mixing rule
Neighbor list info ...
  update: every = 1 steps, delay = 0 steps, check = yes
  max neighbors/atom: 2000, page size: 100000
  master list distance cutoff = 7
  ghost atom cutoff = 7
  binsize = 3.5, bins = 7 5 6
  1 neighbor lists, perpetual/occasional/extra = 1 0 0
  (1) pair lj/cut, perpetual
      attributes: half, newton on
      pair build: half/bin/newton/tri
      stencil: half/bin/3d/tri
      bin: standard
WARNING: Inconsistent image flags
For more information see https://docs.lammps.org/err0027 (src/domain.cpp:1052)
Per MPI rank memory allocation (min/avg/max) = 19.5 | 19.5 | 19.5 Mbytes
   Step          Temp          E_pair         E_mol          TotEng         Press     
    250429   297.91807     -411.61164      205.13905      86.579679      3065.878     
    250470   297.91807     -435.95148      130.76266     -12.136555      879.76414    
Loop time of 0.0269361 on 1 procs for 41 steps with 331 atoms

100.0% CPU use with 1 MPI tasks x 1 OpenMP threads

Minimization stats:
  Stopping criterion = linesearch alpha is zero
  Energy initial, next-to-last, final = 
     -206.472591002972  -305.188825277615  -305.188825277615
  Force two-norm initial, final = 149.16756 21.5996
  Force max component initial, final = 16.034259 4.4314332
  Final line search alpha, max atom move = 2.4572559e-11 1.0889165e-10
  Iterations, force evaluations = 41 137

MPI task timing breakdown:
Section |  min time  |  avg time  |  max time  |%varavg| %total
---------------------------------------------------------------
Pair    | 0.020363   | 0.020363   | 0.020363   |   0.0 | 75.60
Bond    | 0.005333   | 0.005333   | 0.005333   |   0.0 | 19.80
Neigh   | 0          | 0          | 0          |   0.0 |  0.00
Comm    | 0.00069714 | 0.00069714 | 0.00069714 |   0.0 |  2.59
Output  | 0          | 0          | 0          |   0.0 |  0.00
Modify  | 0          | 0          | 0          |   0.0 |  0.00
Other   |            | 0.0005433  |            |       |  2.02

Nlocal:            331 ave         331 max         331 min
Histogram: 1 0 0 0 0 0 0 0 0 0
Nghost:           2129 ave        2129 max        2129 min
Histogram: 1 0 0 0 0 0 0 0 0 0
Neighs:          19107 ave       19107 max       19107 min
Histogram: 1 0 0 0 0 0 0 0 0 0

Total # of neighbors = 19107
Ave neighs/atom = 57.725076
Ave special neighs/atom = 5.8126888
Neighbor list builds = 0
Dangerous builds = 0

# Obtain new stress tensor

variable tmp equal pe
variable e1 equal ${tmp}
variable e1 equal -305.188825277615
variable tmp equal press
variable p1 equal ${tmp}
variable p1 equal 879.764138863548
variable tmp equal pxx
variable pxx1 equal ${tmp}
variable pxx1 equal 302.48243253387
variable tmp equal pyy
variable pyy1 equal ${tmp}
variable pyy1 equal 1852.22806551028
variable tmp equal pzz
variable pzz1 equal ${tmp}
variable pzz1 equal 484.581918546488
variable tmp equal pxy
variable pxy1 equal ${tmp}
variable pxy1 equal -2052.08805630222
variable tmp equal pxz
variable pxz1 equal ${tmp}
variable pxz1 equal -302.752833020667
variable tmp equal pyz
variable pyz1 equal ${tmp}
variable pyz1 equal 43.927203530109

# Compute elastic constant from pressure tensor

variable C1pos equal ${d1}
variable C1pos equal 17.4037270522608
variable C2pos equal ${d2}
variable C2pos equal 9.09037035074455
variable C3pos equal ${d3}
variable C3pos equal 13.9031716757497
variable C4pos equal ${d4}
variable C4pos equal 13.1892938780564
variable C5pos equal ${d5}
variable C5pos equal 0.742928034311865
variable C6pos equal ${d6}
variable C6pos equal 15.3617144714892

# Combine positive and negative

variable C1${dir} equal 0.5*(${C1neg}+${C1pos})
variable C16 equal 0.5*(${C1neg}+${C1pos})
variable C16 equal 0.5*(-25.521288841913+${C1pos})
variable C16 equal 0.5*(-25.521288841913+17.4037270522608)
variable C2${dir} equal 0.5*(${C2neg}+${C2pos})
variable C26 equal 0.5*(${C2neg}+${C2pos})
variable C26 equal 0.5*(-13.7368065752334+${C2pos})
variable C26 equal 0.5*(-13.7368065752334+9.09037035074455)
variable C3${dir} equal 0.5*(${C3neg}+${C3pos})
variable C36 equal 0.5*(${C3neg}+${C3pos})
variable C36 equal 0.5*(-13.1658822589016+${C3pos})
variable C36 equal 0.5*(-13.1658822589016+13.9031716757497)
variable C4${dir} equal 0.5*(${C4neg}+${C4pos})
variable C46 equal 0.5*(${C4neg}+${C4pos})
variable C46 equal 0.5*(-12.0402985418693+${C4pos})
variable C46 equal 0.5*(-12.0402985418693+13.1892938780564)
variable C5${dir} equal 0.5*(${C5neg}+${C5pos})
variable C56 equal 0.5*(${C5neg}+${C5pos})
variable C56 equal 0.5*(2.94365114697159+${C5pos})
variable C56 equal 0.5*(2.94365114697159+0.742928034311865)
variable C6${dir} equal 0.5*(${C6neg}+${C6pos})
variable C66 equal 0.5*(${C6neg}+${C6pos})
variable C66 equal 0.5*(-4.0353516720668+${C6pos})
variable C66 equal 0.5*(-4.0353516720668+15.3617144714892)

# Delete dir to make sure it is not reused

variable dir delete

# Output final values

variable C11all equal ${C11}
variable C11all equal 22.4461466879614
variable C22all equal ${C22}
variable C22all equal 17.6466514701136
variable C33all equal ${C33}
variable C33all equal 23.9255970987564

variable C12all equal 0.5*(${C12}+${C21})
variable C12all equal 0.5*(7.66593064717615+${C21})
variable C12all equal 0.5*(7.66593064717615+6.03767711211925)
variable C13all equal 0.5*(${C13}+${C31})
variable C13all equal 0.5*(8.20839875402895+${C31})
variable C13all equal 0.5*(8.20839875402895+8.22060619453547)
variable C23all equal 0.5*(${C23}+${C32})
variable C23all equal 0.5*(5.06584861240745+${C32})
variable C23all equal 0.5*(5.06584861240745+5.59588045749665)

variable C44all equal ${C44}
variable C44all equal 3.31648637355228
variable C55all equal ${C55}
variable C55all equal 7.36396030401496
variable C66all equal ${C66}
variable C66all equal 5.6631813997112

variable C14all equal 0.5*(${C14}+${C41})
variable C14all equal 0.5*(-0.946252969752651+${C41})
variable C14all equal 0.5*(-0.946252969752651+-0.2679621664117)
variable C15all equal 0.5*(${C15}+${C51})
variable C15all equal 0.5*(1.3763831637716+${C51})
variable C15all equal 0.5*(1.3763831637716+1.81987593757164)
variable C16all equal 0.5*(${C16}+${C61})
variable C16all equal 0.5*(-4.0587808948261+${C61})
variable C16all equal 0.5*(-4.0587808948261+-2.53248090524611)

variable C24all equal 0.5*(${C24}+${C42})
variable C24all equal 0.5*(0.26814173932635+${C42})
variable C24all equal 0.5*(0.26814173932635+0.47022037239385)
variable C25all equal 0.5*(${C25}+${C52})
variable C25all equal 0.5*(0.477747424050375+${C52})
variable C25all equal 0.5*(0.477747424050375+1.07533591258022)
variable C26all equal 0.5*(${C26}+${C62})
variable C26all equal 0.5*(-2.32321811224443+${C62})
variable C26all equal 0.5*(-2.32321811224443+-2.87656540390251)

variable C34all equal 0.5*(${C34}+${C43})
variable C34all equal 0.5*(0.265335583282249+${C43})
variable C34all equal 0.5*(0.265335583282249+-0.37538600292615)
variable C35all equal 0.5*(${C35}+${C53})
variable C35all equal 0.5*(3.80512019475735+${C53})
variable C35all equal 0.5*(3.80512019475735+4.34417648561051)
variable C36all equal 0.5*(${C36}+${C63})
variable C36all equal 0.5*(0.36864470842405+${C63})
variable C36all equal 0.5*(0.36864470842405+0.224712656675205)

variable C45all equal 0.5*(${C45}+${C54})
variable C45all equal 0.5*(-1.00411070258695+${C54})
variable C45all equal 0.5*(-1.00411070258695+0.628629575846722)
variable C46all equal 0.5*(${C46}+${C64})
variable C46all equal 0.5*(0.57449766809355+${C64})
variable C46all equal 0.5*(0.57449766809355+0.612478697513115)
variable C56all equal 0.5*(${C56}+${C65})
variable C56all equal 0.5*(1.84328959064173+${C65})
variable C56all equal 0.5*(1.84328959064173+-0.287793773102424)

# Average moduli for cubic crystals

variable C11cubic equal (${C11all}+${C22all}+${C33all})/3.0
variable C11cubic equal (22.4461466879614+${C22all}+${C33all})/3.0
variable C11cubic equal (22.4461466879614+17.6466514701136+${C33all})/3.0
variable C11cubic equal (22.4461466879614+17.6466514701136+23.9255970987564)/3.0
variable C12cubic equal (${C12all}+${C13all}+${C23all})/3.0
variable C12cubic equal (6.8518038796477+${C13all}+${C23all})/3.0
variable C12cubic equal (6.8518038796477+8.21450247428221+${C23all})/3.0
variable C12cubic equal (6.8518038796477+8.21450247428221+5.33086453495205)/3.0
variable C44cubic equal (${C44all}+${C55all}+${C66all})/3.0
variable C44cubic equal (3.31648637355228+${C55all}+${C66all})/3.0
variable C44cubic equal (3.31648637355228+7.36396030401496+${C66all})/3.0
variable C44cubic equal (3.31648637355228+7.36396030401496+5.6631813997112)/3.0

variable bulkmodulus equal (${C11cubic}+2*${C12cubic})/3.0
variable bulkmodulus equal (21.3394650856105+2*${C12cubic})/3.0
variable bulkmodulus equal (21.3394650856105+2*6.79905696296065)/3.0
variable shearmodulus1 equal ${C44cubic}
variable shearmodulus1 equal 5.44787602575948
variable shearmodulus2 equal (${C11cubic}-${C12cubic})/2.0
variable shearmodulus2 equal (21.3394650856105-${C12cubic})/2.0
variable shearmodulus2 equal (21.3394650856105-6.79905696296065)/2.0
variable poissonratio equal 1.0/(1.0+${C11cubic}/${C12cubic})
variable poissonratio equal 1.0/(1.0+21.3394650856105/${C12cubic})
variable poissonratio equal 1.0/(1.0+21.3394650856105/6.79905696296065)

print "Elastic Constant 1 1 = ${C11all}"
Elastic Constant 1 1 = 22.4461466879614
print "Elastic Constant 2 2 = ${C22all}"
Elastic Constant 2 2 = 17.6466514701136
print "Elastic Constant 3 3 = ${C33all}"
Elastic Constant 3 3 = 23.9255970987564

print "Elastic Constant 1 2 = ${C12all}"
Elastic Constant 1 2 = 6.8518038796477
print "Elastic Constant 1 3 = ${C13all}"
Elastic Constant 1 3 = 8.21450247428221
print "Elastic Constant 2 3 = ${C23all}"
Elastic Constant 2 3 = 5.33086453495205

print "Elastic Constant 4 4 = ${C44all}"
Elastic Constant 4 4 = 3.31648637355228
print "Elastic Constant 5 5 = ${C55all}"
Elastic Constant 5 5 = 7.36396030401496
print "Elastic Constant 6 6 = ${C66all}"
Elastic Constant 6 6 = 5.6631813997112

print "Elastic Constant 1 4 = ${C14all}"
Elastic Constant 1 4 = -0.607107568082176
print "Elastic Constant 1 5 = ${C15all}"
Elastic Constant 1 5 = 1.59812955067162
print "Elastic Constant 1 6 = ${C16all}"
Elastic Constant 1 6 = -3.29563090003611

print "Elastic Constant 2 4 = ${C24all}"
Elastic Constant 2 4 = 0.3691810558601
print "Elastic Constant 2 5 = ${C25all}"
Elastic Constant 2 5 = 0.776541668315297
print "Elastic Constant 2 6 = ${C26all}"
Elastic Constant 2 6 = -2.59989175807347

print "Elastic Constant 3 4 = ${C34all}"
Elastic Constant 3 4 = -0.0550252098219505
print "Elastic Constant 3 5 = ${C35all}"
Elastic Constant 3 5 = 4.07464834018393
print "Elastic Constant 3 6 = ${C36all}"
Elastic Constant 3 6 = 0.296678682549627

print "Elastic Constant 4 5 = ${C45all}"
Elastic Constant 4 5 = -0.187740563370114
print "Elastic Constant 4 6 = ${C46all}"
Elastic Constant 4 6 = 0.593488182803332
print "Elastic Constant 5 6 = ${C56all}"
Elastic Constant 5 6 = 0.777747908769653

print "Bulk Modulus = ${bulkmodulus} ${cunits}"
Bulk Modulus = 11.6458596705106 GPa
print "Shear Modulus 1 = ${shearmodulus1} ${cunits}"
Shear Modulus 1 = 5.44787602575948 GPa
print "Shear Modulus 2 = ${shearmodulus2} ${cunits}"
Shear Modulus 2 = 7.27020406132492 GPa
print "Poisson Ratio = ${poissonratio}"
Poisson Ratio = 0.241628076670996

variable rho equal density
print "density (g/cm^3) = ${rho}"
density (g/cm^3) = 1.29515967629681
Total wall time: 0:00:55
