units           real
atom_style      full
boundary        p p p

pair_style      lj/cut 5.000
bond_style      harmonic
angle_style     hybrid fourier cosine/periodic
dihedral_style  harmonic

pair_modify     tail yes mix arithmetic
special_bonds   lj/coul 0.0 0.0 1.0
dielectric      1.0
box tilt        large

The 'box' command has been removed and will be ignored

read_data       ./dat/data.333-BV-12-vasp
Reading data file ...
  triclinic box = (0 0 0) to (17.076078 13.980581 17.246173) with tilt (-8.040722 0.858085 -2.739521)
WARNING: Triclinic box skew is large. LAMMPS will run inefficiently. (src/domain.cpp:221)
  1 by 1 by 1 MPI processor grid
  reading atoms ...
  346 atoms
  scanning bonds ...
  4 = max bonds/atom
  scanning angles ...
  6 = max angles/atom
  scanning dihedrals ...
  30 = max dihedrals/atom
  triclinic box = (0 0 0) to (17.076078 13.980581 17.246173) with tilt (-8.040722 0.858085 -2.739521)
WARNING: Triclinic box skew is large. LAMMPS will run inefficiently. (src/domain.cpp:221)
  1 by 1 by 1 MPI processor grid
  reading bonds ...
  351 bonds
  reading angles ...
  656 angles
  reading dihedrals ...
  777 dihedrals
Finding 1-2 1-3 1-4 neighbors ...
  special bond factors lj:    0        0        1       
  special bond factors coul:  0        0        1       
     4 = max # of 1-2 neighbors
    10 = max # of 1-3 neighbors
    14 = max # of special neighbors
  special bonds CPU = 0.000 seconds
  read_data CPU = 0.015 seconds

#### Atom Groupings ####
group           fram     id   1:346
346 atoms in group fram
#### END Atom Groupings ####

compute am all property/atom mass
dump        atom_pos all extxyz 100 ./output/333-BV-12-vasp.lammpstrj
dump_modify atom_pos element Si C H O mass yes
thermo          1000
thermo_style    custom step temp pe ke etotal press vol density

variable up equal 2e-2
variable cfac equal 1.0e-4
variable cunits string GPa

# Define minimization parameters
variable etol equal 0.0
variable ftol equal 1.0e-10
variable maxiter equal 100000
variable maxeval equal 100000
variable dmax equal 1.0e-2

variable temp equal 300.0
variable thermal_damp index 100.0
variable pressure_damp index 500.0

fix relax all box/relax aniso 0.0 vmax 0.001
unfix relax
minimize ${etol} ${ftol} ${maxiter} ${maxeval}
minimize 0 ${ftol} ${maxiter} ${maxeval}
minimize 0 1e-10 ${maxiter} ${maxeval}
minimize 0 1e-10 100000 ${maxeval}
minimize 0 1e-10 100000 100000
Generated 6 of 6 mixed pair_coeff terms from arithmetic mixing rule
Neighbor list info ...
  update: every = 1 steps, delay = 0 steps, check = yes
  max neighbors/atom: 2000, page size: 100000
  master list distance cutoff = 7
  ghost atom cutoff = 7
  binsize = 3.5, bins = 8 5 5
  1 neighbor lists, perpetual/occasional/extra = 1 0 0
  (1) pair lj/cut, perpetual
      attributes: half, newton on
      pair build: half/bin/newton/tri
      stencil: half/bin/3d/tri
      bin: standard
WARNING: Inconsistent image flags
For more information see https://docs.lammps.org/err0027 (src/domain.cpp:1052)
Per MPI rank memory allocation (min/avg/max) = 19.51 | 19.51 | 19.51 Mbytes
   Step          Temp          PotEng         KinEng         TotEng         Press          Volume        Density    
         0   0              622.73129      0              622.73129      45113.05       4117.2391      1.2536441    
        91   0             -216.89431      0             -216.89431      2521.1877      4117.2391      1.2536441    
Loop time of 0.068601 on 1 procs for 91 steps with 346 atoms

100.0% CPU use with 1 MPI tasks x 1 OpenMP threads

Minimization stats:
  Stopping criterion = linesearch alpha is zero
  Energy initial, next-to-last, final = 
      622.731293979113  -216.894313042949  -216.894313042949
  Force two-norm initial, final = 733.88943 23.780404
  Force max component initial, final = 101.58485 5.2707261
  Final line search alpha, max atom move = 1.9912713e-11 1.0495446e-10
  Iterations, force evaluations = 91 236

MPI task timing breakdown:
Section |  min time  |  avg time  |  max time  |%varavg| %total
---------------------------------------------------------------
Pair    | 0.044744   | 0.044744   | 0.044744   |   0.0 | 65.22
Bond    | 0.011087   | 0.011087   | 0.011087   |   0.0 | 16.16
Neigh   | 0.0085326  | 0.0085326  | 0.0085326  |   0.0 | 12.44
Comm    | 0.0016507  | 0.0016507  | 0.0016507  |   0.0 |  2.41
Output  | 0          | 0          | 0          |   0.0 |  0.00
Modify  | 0          | 0          | 0          |   0.0 |  0.00
Other   |            | 0.002586   |            |       |  3.77

Nlocal:            346 ave         346 max         346 min
Histogram: 1 0 0 0 0 0 0 0 0 0
Nghost:           2174 ave        2174 max        2174 min
Histogram: 1 0 0 0 0 0 0 0 0 0
Neighs:          19972 ave       19972 max       19972 min
Histogram: 1 0 0 0 0 0 0 0 0 0

Total # of neighbors = 19972
Ave neighs/atom = 57.722543
Ave special neighs/atom = 5.8208092
Neighbor list builds = 3
Dangerous builds = 0

# Generating the full routine as described in the paper for UFF
fix nvt_relax   all nvt temp 300 300 ${thermal_damp}
fix nvt_relax   all nvt temp 300 300 100.0
run 100000      # 100 picoseconds
Generated 6 of 6 mixed pair_coeff terms from arithmetic mixing rule
WARNING: Inconsistent image flags
For more information see https://docs.lammps.org/err0027 (src/domain.cpp:1052)
Per MPI rank memory allocation (min/avg/max) = 19.45 | 19.45 | 19.45 Mbytes
   Step          Temp          PotEng         KinEng         TotEng         Press          Volume        Density    
        91   0             -216.89431      0             -216.89431      2521.1877      4117.2391      1.2536441    
      1000   231.40985     -56.347529      237.97714      181.62961      7751.6377      4117.2391      1.2536441    
      2000   320.5056      -18.45208       329.60137      311.14929      8674.4652      4117.2391      1.2536441    
      3000   299.74402      32.034287      308.25059      340.28488     -3288.4106      4117.2391      1.2536441    
      4000   280.58248      17.593945      288.54527      306.13921     -3441.0096      4117.2391      1.2536441    
      5000   291.14162      5.5678654      299.40407      304.97193      2189.381       4117.2391      1.2536441    
      6000   301.91424      22.484326      310.4824       332.96673      2702.7545      4117.2391      1.2536441    
      7000   316.49624     -36.465661      325.47823      289.01257      555.30653      4117.2391      1.2536441    
      8000   309.93477      11.591552      318.73056      330.32211      461.14121      4117.2391      1.2536441    
      9000   301.93304     -2.5713274      310.50174      307.93042      1835.9059      4117.2391      1.2536441    
     10000   286.37461      2.1489703      294.50177      296.65074     -1800.9097      4117.2391      1.2536441    
     11000   293.24079     -19.074237      301.56281      282.48857      1115.0823      4117.2391      1.2536441    
     12000   301.2218       0.052732495    309.77032      309.82305      3121.6554      4117.2391      1.2536441    
     13000   293.95403     -24.527727      302.29628      277.76856      2603.3509      4117.2391      1.2536441    
     14000   274.21308     -9.0739401      281.9951       272.92116      3197.3469      4117.2391      1.2536441    
     15000   288.25546     -0.82967055     296.436        295.60633      1470.3515      4117.2391      1.2536441    
     16000   311.11323     -14.094489      319.94246      305.84797      1862.9941      4117.2391      1.2536441    
     17000   275.96044     -23.2411        283.79205      260.55095      559.34252      4117.2391      1.2536441    
     18000   297.22799     -11.444768      305.66316      294.21839      5715.2679      4117.2391      1.2536441    
     19000   284.24374     -7.889228       292.31042      284.42119      2351.2174      4117.2391      1.2536441    
     20000   300.87577     -6.8375652      309.41447      302.5769      -632.5934       4117.2391      1.2536441    
     21000   312.66828     -6.1778026      321.54163      315.36383      4310.1649      4117.2391      1.2536441    
     22000   279.50641     -16.623124      287.43865      270.81553      1960.7151      4117.2391      1.2536441    
     23000   325.15938      15.551817      334.38723      349.93905      423.49076      4117.2391      1.2536441    
     24000   305.78479     -27.559572      314.4628       286.90323     -1152.0414      4117.2391      1.2536441    
     25000   280.31651     -23.888919      288.27174      264.38282     -391.80871      4117.2391      1.2536441    
     26000   312.42012     -14.854099      321.28644      306.43234      3333.41        4117.2391      1.2536441    
     27000   312.22353     -17.669271      321.08427      303.415       -3147.8931      4117.2391      1.2536441    
     28000   298.17799     -26.411238      306.64012      280.22888      4130.5474      4117.2391      1.2536441    
     29000   314.79361     -38.00592       323.72728      285.72136     -5834.1174      4117.2391      1.2536441    
     30000   283.25032      14.994697      291.28881      306.28351     -195.65351      4117.2391      1.2536441    
     31000   283.0383      -25.152592      291.07078      265.91819     -4230.128       4117.2391      1.2536441    
     32000   298.6078      -12.482257      307.08213      294.59988      3421.784       4117.2391      1.2536441    
     33000   309.13059     -35.28213       317.90355      282.62142      3486.4406      4117.2391      1.2536441    
     34000   298.68483     -17.744832      307.16135      289.41651      975.34427      4117.2391      1.2536441    
     35000   281.79225     -1.850984       289.78936      287.93838     -4922.3866      4117.2391      1.2536441    
     36000   278.31937     -23.431068      286.21793      262.78686     -4350.1865      4117.2391      1.2536441    
     37000   294.43171     -30.200386      302.78753      272.58714      2639.8367      4117.2391      1.2536441    
     38000   294.45276      2.9098997      302.80918      305.71908      2767.7688      4117.2391      1.2536441    
     39000   290.85196     -21.873466      299.10618      277.23271     -2827.6624      4117.2391      1.2536441    
     40000   283.63524      2.7980088      291.68466      294.48267      1110.3723      4117.2391      1.2536441    
     41000   313.38523     -14.329785      322.27894      307.94915     -4633.8713      4117.2391      1.2536441    
     42000   284.34535     -3.5978229      292.41492      288.81709     -3889.4251      4117.2391      1.2536441    
     43000   320.83176     -15.194534      329.93679      314.74226     -3606.8735      4117.2391      1.2536441    
     44000   277.89924      6.4063998      285.78588      292.19228     -3535.362       4117.2391      1.2536441    
     45000   301.20994     -18.983462      309.75811      290.77465      2316.4079      4117.2391      1.2536441    
     46000   299.00905      0.63459898     307.49477      308.12937      1180.4007      4117.2391      1.2536441    
     47000   276.12572     -31.846583      283.96202      252.11544     -4480.5874      4117.2391      1.2536441    
     48000   301.73874     -9.5654623      310.30192      300.73646     -6558.8991      4117.2391      1.2536441    
     49000   279.38004     -24.840405      287.30869      262.46829     -251.25406      4117.2391      1.2536441    
     50000   295.05333     -15.676931      303.42678      287.74985      3028.0998      4117.2391      1.2536441    
     51000   285.36376      12.075273      293.46223      305.5375      -3304.4829      4117.2391      1.2536441    
     52000   274.82645     -33.372341      282.62588      249.25353     -199.50499      4117.2391      1.2536441    
     53000   305.43656     -7.5049173      314.10469      306.59977      821.94033      4117.2391      1.2536441    
     54000   300.19666     -13.453029      308.71608      295.26305     -6102.6191      4117.2391      1.2536441    
     55000   294.84594     -14.337731      303.21351      288.87578      438.11518      4117.2391      1.2536441    
     56000   303.94559     -4.4364495      312.5714       308.13495      2667.0921      4117.2391      1.2536441    
     57000   310.19755      3.9547024      319.0008       322.9555       2891.3188      4117.2391      1.2536441    
     58000   289.78        -17.065883      298.0038       280.93792      1124.5301      4117.2391      1.2536441    
     59000   300.96182     -5.9950983      309.50295      303.50785     -797.11041      4117.2391      1.2536441    
     60000   278.31747     -27.749211      286.21597      258.46676     -3881.3784      4117.2391      1.2536441    
     61000   297.63805     -12.290125      306.08486      293.79474     -2508.5968      4117.2391      1.2536441    
     62000   315.75304     -12.247868      324.71395      312.46608      3763.7485      4117.2391      1.2536441    
     63000   279.5738      -12.327231      287.50796      275.18073     -2360.4943      4117.2391      1.2536441    
     64000   302.83933     -9.9897233      311.43375      301.44403     -2842.7256      4117.2391      1.2536441    
     65000   322.93434     -39.103227      332.09904      292.99581     -1186.2001      4117.2391      1.2536441    
     66000   278.72868     -29.577031      286.63885      257.06182      1055.5038      4117.2391      1.2536441    
     67000   282.70619      3.0134604      290.72924      293.7427       219.36387      4117.2391      1.2536441    
     68000   320.1217      -29.22148       329.20659      299.98511      1266.1863      4117.2391      1.2536441    
     69000   312.37714     -18.157816      321.24224      303.08442      535.93971      4117.2391      1.2536441    
     70000   323.39169     -58.567679      332.56937      274.00169     -3079.1107      4117.2391      1.2536441    
     71000   312.56416     -31.611811      321.43457      289.82276      122.79107      4117.2391      1.2536441    
     72000   317.4528      -15.028436      326.46194      311.4335       813.78824      4117.2391      1.2536441    
     73000   313.28992     -42.253538      322.18092      279.92738      4959.6626      4117.2391      1.2536441    
     74000   324.58873     -13.266134      333.80039      320.53425     -2495.1886      4117.2391      1.2536441    
     75000   290.33803     -8.7577066      298.57766      289.81996     -4651.7875      4117.2391      1.2536441    
     76000   295.16385     -9.2998394      303.54044      294.2406      -2591.7912      4117.2391      1.2536441    
     77000   291.75819     -28.555134      300.03814      271.483        3847.4153      4117.2391      1.2536441    
     78000   303.74506     -40.494407      312.36518      271.87078      4820.8066      4117.2391      1.2536441    
     79000   298.97254     -16.127364      307.45722      291.32985     -2345.2742      4117.2391      1.2536441    
     80000   288.35298     -34.485072      296.53628      262.05121     -6294.3862      4117.2391      1.2536441    
     81000   300.68475     -2.8374581      309.21803      306.38057     -3970.3317      4117.2391      1.2536441    
     82000   301.14834     -34.642725      309.69477      275.05205     -2482.7405      4117.2391      1.2536441    
     83000   319.04515     -5.7333026      328.09948      322.36618     -6835.8509      4117.2391      1.2536441    
     84000   305.11462     -7.4423337      313.77361      306.33127      2521.8825      4117.2391      1.2536441    
     85000   289.74957     -16.58884       297.97251      281.38367      2117.7897      4117.2391      1.2536441    
     86000   274.32327     -5.5979411      282.10842      276.51047      444.83825      4117.2391      1.2536441    
     87000   296.001       -34.372652      304.40135      270.0287      -1244.4375      4117.2391      1.2536441    
     88000   269.58852     -12.34903       277.2393       264.89027      4785.2601      4117.2391      1.2536441    
     89000   336.90338     -14.118851      346.46452      332.34567     -1530.6543      4117.2391      1.2536441    
     90000   302.40379     -11.867479      310.98585      299.11837     -2438.1633      4117.2391      1.2536441    
     91000   279.54033     -17.550081      287.47354      269.92346      20.362785      4117.2391      1.2536441    
     92000   312.58225     -19.392088      321.45316      302.06107     -325.64344      4117.2391      1.2536441    
     93000   309.0151      -36.042471      317.78479      281.74232     -1847.2676      4117.2391      1.2536441    
     94000   286.49942     -43.252503      294.63012      251.37762      1143.5463      4117.2391      1.2536441    
     95000   291.53542     -32.578124      299.80904      267.23091     -1625.4345      4117.2391      1.2536441    
     96000   319.6939      -12.040694      328.76664      316.72594      1907.4072      4117.2391      1.2536441    
     97000   297.89596      0.67169376     306.35009      307.02178     -8.8519829      4117.2391      1.2536441    
     98000   282.13526     -33.141185      290.1421       257.00092      4987.3611      4117.2391      1.2536441    
     99000   289.84455     -32.973277      298.07018      265.09691      300.54638      4117.2391      1.2536441    
    100000   320.6992      -22.572334      329.80047      307.22813     -1308.5726      4117.2391      1.2536441    
    100091   296.93304     -29.633832      305.35984      275.72601      758.51016      4117.2391      1.2536441    
Loop time of 26.2659 on 1 procs for 100000 steps with 346 atoms

Performance: 328.943 ns/day, 0.073 hours/ns, 3807.212 timesteps/s, 1.317 Matom-step/s
99.6% CPU use with 1 MPI tasks x 1 OpenMP threads

MPI task timing breakdown:
Section |  min time  |  avg time  |  max time  |%varavg| %total
---------------------------------------------------------------
Pair    | 14.037     | 14.037     | 14.037     |   0.0 | 53.44
Bond    | 3.7074     | 3.7074     | 3.7074     |   0.0 | 14.11
Neigh   | 6.6756     | 6.6756     | 6.6756     |   0.0 | 25.42
Comm    | 0.66703    | 0.66703    | 0.66703    |   0.0 |  2.54
Output  | 0.6324     | 0.6324     | 0.6324     |   0.0 |  2.41
Modify  | 0.39635    | 0.39635    | 0.39635    |   0.0 |  1.51
Other   |            | 0.1505     |            |       |  0.57

Nlocal:            346 ave         346 max         346 min
Histogram: 1 0 0 0 0 0 0 0 0 0
Nghost:           2090 ave        2090 max        2090 min
Histogram: 1 0 0 0 0 0 0 0 0 0
Neighs:          19744 ave       19744 max       19744 min
Histogram: 1 0 0 0 0 0 0 0 0 0

Total # of neighbors = 19744
Ave neighs/atom = 57.063584
Ave special neighs/atom = 5.8208092
Neighbor list builds = 2604
Dangerous builds = 0
unfix           nvt_relax

fix npt_relax   all npt temp 300 300 ${thermal_damp} iso 0 0 ${pressure_damp}
fix npt_relax   all npt temp 300 300 100.0 iso 0 0 ${pressure_damp}
fix npt_relax   all npt temp 300 300 100.0 iso 0 0 500.0
run 100000      # 100 picoseconds
Generated 6 of 6 mixed pair_coeff terms from arithmetic mixing rule
WARNING: Inconsistent image flags
For more information see https://docs.lammps.org/err0027 (src/domain.cpp:1052)
Per MPI rank memory allocation (min/avg/max) = 19.47 | 19.47 | 19.47 Mbytes
   Step          Temp          PotEng         KinEng         TotEng         Press          Volume        Density    
    100091   296.93304     -29.633832      305.35984      275.72601      758.51016      4117.2391      1.2536441    
    101000   336.25281     -24.574832      345.79548      321.22065     -3018.8234      4144.1927      1.2454905    
    102000   297.90395     -19.537374      306.35831      286.82094     -1507.2042      4144.0114      1.245545     
    103000   300.85934     -17.966969      309.39757      291.4306      -2057.3012      4076.2413      1.2662529    
    104000   294.65061     -13.355552      303.01264      289.65708     -2835.458       4153.5346      1.2426891    
    105000   296.26182     -32.692858      304.66957      271.97671     -3592.9138      4132.2439      1.2490919    
    106000   328.03899     -42.86287       337.34857      294.4857      -1274.583       4174.3081      1.2365049    
    107000   280.39648     -33.50925       288.35398      254.84473      2850.8552      4118.3185      1.2533155    
    108000   309.39754     -34.256743      318.17808      283.92134     -553.05665      4113.263       1.2548559    
    109000   297.13892     -30.018501      305.57157      275.55307      2497.9556      4111.9675      1.2552513    
    110000   327.1737      -15.085193      336.45871      321.37352     -1856.9672      4130.1343      1.2497299    
    111000   297.16965     -35.853743      305.60316      269.74942     -2586.4494      4186.9095      1.2327834    
    112000   308.64085     -16.586381      317.39992      300.81354     -5355.1051      4116.8183      1.2537722    
    113000   302.62455     -19.381968      311.21287      291.8309       1337.1775      4131.4795      1.249323     
    114000   298.29751     -31.402453      306.76303      275.36058     -7519.3771      4213.5822      1.2249796    
    115000   295.556       -6.509083       303.94372      297.43464      1235.0847      4137.3754      1.2475427    
    116000   274.59169     -50.818294      282.38446      231.56617     -339.014        4191.4184      1.2314572    
    117000   291.27648      7.3742649      299.54276      306.91702     -92.749683      4153.7322      1.24263      
    118000   301.32282     -33.287513      309.8742       276.58669      2271.1128      4160.7006      1.2405489    
    119000   302.22399     -34.531127      310.80094      276.26982     -1950.0269      4123.6241      1.2517029    
    120000   318.54423     -37.087655      327.58435      290.49669      1723.6415      4135.7196      1.2480421    
    121000   309.37489     -0.092640887    318.15478      318.06214     -3035.3226      4150.9171      1.2434728    
    122000   304.10438     -1.5315876      312.7347       311.20312     -4487.8668      4219.6364      1.2232221    
    123000   291.19668     -27.429884      299.46068      272.0308      -178.65676      4080.2047      1.2650229    
    124000   303.12703     -32.749288      311.72961      278.98032     -1457.614       4152.2971      1.2430595    
    125000   275.14981      1.9723906      282.95841      284.9308      -2384.7046      4082.8612      1.2641998    
    126000   311.37698      12.051378      320.21369      332.26507     -296.29237      4179.1701      1.2350664    
    127000   315.61215     -24.870423      324.56906      299.69863     -1713.4862      4168.1855      1.2383212    
    128000   305.81149     -22.771048      314.49026      291.71921      919.01746      4152.7259      1.2429312    
    129000   315.41029     -24.148177      324.36147      300.21329      5196.7383      4095.6032      1.2602667    
    130000   281.22782     -20.886611      289.20891      268.3223       2598.1385      4083.3077      1.2640616    
    131000   311.05532     -12.28646       319.88291      307.59645     -2846.0789      4176.0894      1.2359775    
    132000   279.62539     -26.147947      287.56101      261.41306      2090.5206      4079.6278      1.2652018    
    133000   292.82691      0.57603114     301.13718      301.71321     -2309.89        4198.1019      1.2294967    
    134000   282.81013     -28.16597       290.83614      262.67016     -2119.4694      4132.4464      1.2490307    
    135000   281.4687      -1.6310364      289.45663      287.82559     -1727.7855      4096.0546      1.2601278    
    136000   308.14708     -18.595565      316.89213      298.29656     -1362.2846      4149.6539      1.2438513    
    137000   313.08446     -37.328718      321.96963      284.64091      1935.5652      4181.1185      1.2344908    
    138000   326.70857     -1.4808498      335.98039      334.49954     -2390.0185      4138.7998      1.2471133    
    139000   298.25057     -24.015493      306.71476      282.69927      4203.9663      4175.293       1.2362132    
    140000   318.37464     -5.7268532      327.40994      321.68309     -1544.8243      4066.3109      1.2693453    
    141000   321.11789     -48.718725      330.23104      281.51232     -2109.8464      4063.7835      1.2701347    
    142000   300.78967     -14.617887      309.32592      294.70804      4393.1484      4073.208       1.2671959    
    143000   306.68897     -13.816626      315.39264      301.57602     -2892.5974      4185.3215      1.2332511    
    144000   300.56412     -5.9843652      309.09397      303.1096      -5037.96        4164.4163      1.239442     
    145000   305.85304     -33.13106       314.53299      281.40193      2977.286       4122.5116      1.2520407    
    146000   316.30236     -23.845378      325.27886      301.43348     -528.45352      4134.2891      1.248474     
    147000   287.06026     -16.419028      295.20688      278.78785     -711.30238      4079.0724      1.2653741    
    148000   304.41236     -11.734374      313.05143      301.31705     -2186.7658      4128.3796      1.2502611    
    149000   305.8702      -22.038017      314.55063      292.51262      1537.6709      4130.3387      1.2496681    
    150000   287.06989     -4.6595657      295.21678      290.55722     -1900.9459      4188.7674      1.2322366    
    151000   303.09732      13.102378      311.69906      324.80144     -512.7212       4205.3255      1.2273848    
    152000   281.22068     -17.854317      289.20157      271.34725     -2419.4261      4144.8267      1.2452999    
    153000   302.30773     -28.019633      310.88706      282.86743      126.13878      4100.0454      1.2589013    
    154000   313.08862     -20.563386      321.9739       301.41052      2300.7122      4115.8335      1.2540722    
    155000   305.4123      -0.80758078     314.07974      313.27216      815.84686      4129.709       1.2498586    
    156000   291.47678     -24.958515      299.74873      274.79022      5772.8976      4115.3668      1.2542144    
    157000   337.2839      -34.295774      346.85584      312.56007      544.70484      4216.4763      1.2241388    
    158000   302.68649     -6.4991106      311.27658      304.77746      6612.2263      4125.3484      1.2511798    
    159000   315.74238     -50.741585      324.70298      273.9614       3562.9185      4112.6947      1.2550293    
    160000   314.39979     -23.138372      323.32229      300.18392     -862.95183      4174.8874      1.2363333    
    161000   292.28736     -7.8989267      300.58232      292.68339     -2631.4197      4162.2929      1.2400743    
    162000   313.03388     -22.93049       321.91762      298.98712     -1272.85        4150.9807      1.2434537    
    163000   313.64887     -29.049472      322.55006      293.50059     -3629.05        4185.7178      1.2331344    
    164000   310.6294       9.3536742      319.4449       328.79857     -248.6384       4087.0779      1.2628955    
    165000   313.38607     -23.685133      322.2798       298.59467     -4407.6091      4107.5746      1.2565937    
    166000   269.52167     -12.452009      277.17055      264.71854      3540.0285      4137.1212      1.2476193    
    167000   279.2783      -2.1850725      287.20407      285.019       -2524.236       4131.5378      1.2493054    
    168000   289.18677      1.6901133      297.39374      299.08385     -1259.6253      4131.1852      1.249412     
    169000   303.52061     -21.830842      312.13437      290.30352     -830.08694      4134.5744      1.2483879    
    170000   301.84769     -45.71846       310.41397      264.69551      3058.6132      4177.6774      1.2355076    
    171000   282.90393     -13.925007      290.93259      277.00758      1705.9096      4305.6395      1.1987888    
    172000   278.30496     -19.930197      286.2031       266.27291      246.42574      4311.8647      1.1970581    
    173000   282.42794     -30.205044      290.44309      260.23805     -1808.1991      4283.9585      1.2048558    
    174000   296.63174     -32.257277      305.04999      272.79271     -476.13033      4317.5473      1.1954825    
    175000   299.99968     -27.661261      308.51351      280.85225      917.30392      4200.2148      1.2288782    
    176000   305.29148     -25.135289      313.95549      288.8202       3647.0318      4252.4329      1.2137881    
    177000   302.8477      -66.101664      311.44236      245.3407       85.54346       4281.6506      1.2055053    
    178000   299.26355     -17.251577      307.75649      290.50491     -1424.3605      4216.0785      1.2242544    
    179000   298.28348     -26.970793      306.7486       279.77781     -3236.3754      4224.4773      1.2218204    
    180000   290.46707     -12.274874      298.71038      286.4355       3894.5159      4232.8056      1.2194164    
    181000   306.19218     -32.638332      314.88175      282.24342     -4798.2108      4238.6078      1.2177471    
    182000   299.20868     -36.606622      307.70006      271.09344     -763.01904      4314.9715      1.1961962    
    183000   302.32056     -48.593281      310.90026      262.30697     -3236.9985      4325.1169      1.1933903    
    184000   299.35727     -24.42213       307.85287      283.43074      1248.4837      4239.789       1.2174079    
    185000   298.81341     -49.490553      307.29358      257.80302      3071.1119      4214.3267      1.2247632    
    186000   287.40182     -17.887032      295.55813      277.67109      4113.394       4247.8222      1.2151056    
    187000   293.87717     -25.648347      302.21724      276.5689       1557.9078      4171.9211      1.2372124    
    188000   294.74452     -9.5953089      303.10922      293.51391     -2837.667       4248.3298      1.2149604    
    189000   322.59837     -52.37789       331.75354      279.37565     -326.22462      4090.5103      1.2618358    
    190000   298.53447     -17.910415      307.00672      289.0963      -3456.2116      4243.1604      1.2164406    
    191000   292.40682     -20.009228      300.70517      280.69594     -5079.5156      4185.0142      1.2333417    
    192000   296.80341     -70.864084      305.22653      234.36244      2173.7482      4127.77        1.2504457    
    193000   308.41781     -46.382797      317.17054      270.78774     -769.81278      4248.8044      1.2148247    
    194000   287.2454      -15.724166      295.39727      279.6731      -1590.3017      4248.2695      1.2149776    
    195000   290.93916     -26.01604       299.19586      273.17982      3156.279       4202.4972      1.2282108    
    196000   300.41832     -47.829718      308.94404      261.11432      1641.3097      4168.076       1.2383537    
    197000   324.88079     -36.812172      334.10073      297.28856      6419.8557      4112.7217      1.2550211    
    198000   291.4847      -62.82952       299.75688      236.92736     -1828.5398      4178.0807      1.2353884    
    199000   292.375       -34.569035      300.67245      266.10342      3325.8474      4217.1925      1.223931     
    200000   317.88971     -20.816782      326.91125      306.09447     -412.44557      4226.4961      1.2212368    
    200091   283.1364       5.1786832      291.17166      296.35035     -52.149386      4166.2232      1.2389045    
Loop time of 24.1594 on 1 procs for 100000 steps with 346 atoms

Performance: 357.624 ns/day, 0.067 hours/ns, 4139.168 timesteps/s, 1.432 Matom-step/s
99.7% CPU use with 1 MPI tasks x 1 OpenMP threads

MPI task timing breakdown:
Section |  min time  |  avg time  |  max time  |%varavg| %total
---------------------------------------------------------------
Pair    | 12.225     | 12.225     | 12.225     |   0.0 | 50.60
Bond    | 4.141      | 4.141      | 4.141      |   0.0 | 17.14
Neigh   | 5.8638     | 5.8638     | 5.8638     |   0.0 | 24.27
Comm    | 0.552      | 0.552      | 0.552      |   0.0 |  2.28
Output  | 0.50066    | 0.50066    | 0.50066    |   0.0 |  2.07
Modify  | 0.74159    | 0.74159    | 0.74159    |   0.0 |  3.07
Other   |            | 0.1352     |            |       |  0.56

Nlocal:            346 ave         346 max         346 min
Histogram: 1 0 0 0 0 0 0 0 0 0
Nghost:           2104 ave        2104 max        2104 min
Histogram: 1 0 0 0 0 0 0 0 0 0
Neighs:          19460 ave       19460 max       19460 min
Histogram: 1 0 0 0 0 0 0 0 0 0

Total # of neighbors = 19460
Ave neighs/atom = 56.242775
Ave special neighs/atom = 5.8208092
Neighbor list builds = 2727
Dangerous builds = 0
unfix           npt_relax

# fix nvt_heat    all nvt temp 300 1000 ${thermal_damp}
# run 100000      # 100 picoseconds
# unfix           nvt_heat
#
# fix npt_heat    all npt temp 1000 1000 ${thermal_damp} iso 0 0 ${pressure_damp}
# run 100000      # 100 picoseconds
# unfix           npt_heat
#
# fix cooling_npt all npt temp 1000 300 ${thermal_damp} iso 0 0 ${pressure_damp}
# run 700000      # 700 picoseconds
# unfix           cooling_npt
#
# fix npt_final   all npt temp 300 300 ${thermal_damp} iso 0 0 100
# run 100000      # 100 picoseconds
# unfix           npt_final

# density computation
variable rho equal density
fix integrate  all npt temp ${temp} ${temp} ${thermal_damp} iso 0 0 ${pressure_damp}
fix integrate  all npt temp 300 ${temp} ${thermal_damp} iso 0 0 ${pressure_damp}
fix integrate  all npt temp 300 300 ${thermal_damp} iso 0 0 ${pressure_damp}
fix integrate  all npt temp 300 300 100.0 iso 0 0 ${pressure_damp}
fix integrate  all npt temp 300 300 100.0 iso 0 0 500.0
fix rho50k all ave/time 10 5000 50000 v_rho mode scalar ave one
run 50000
Generated 6 of 6 mixed pair_coeff terms from arithmetic mixing rule
WARNING: Inconsistent image flags
For more information see https://docs.lammps.org/err0027 (src/domain.cpp:1052)
Per MPI rank memory allocation (min/avg/max) = 19.47 | 19.47 | 19.47 Mbytes
   Step          Temp          PotEng         KinEng         TotEng         Press          Volume        Density    
    200091   283.1364       5.1786832      291.17166      296.35035     -52.149386      4166.2232      1.2389045    
    201000   292.3186      -31.297556      300.61445      269.31689     -1635.2963      4318.9956      1.1950817    
    202000   285.19044     -34.608362      293.284        258.67563      1025.6047      4134.0768      1.2485381    
    203000   307.35571     -18.48708       316.0783       297.59122     -313.73388      4197.1696      1.2297698    
    204000   306.78743     -68.391488      315.49389      247.1024       1334.5009      4167.5046      1.2385235    
    205000   312.29208     -1.5424733      321.15476      319.61229     -2445.7142      4175.5953      1.2361237    
    206000   284.02888     -31.594896      292.08947      260.49457     -9816.1453      4211.36        1.225626     
    207000   277.20619     -23.990086      285.07315      261.08307     -104.43196      4190.6936      1.2316702    
    208000   309.05699     -18.741641      317.82786      299.08622      973.74491      4236.1082      1.2184657    
    209000   299.2784      -21.864936      307.77176      285.90682     -5105.1365      4170.2037      1.2377219    
    210000   299.46399     -9.8051361      307.96262      298.15748      2055.7502      4226.7807      1.2211545    
    211000   285.46723     -20.785354      293.56864      272.78329      596.84596      4125.4487      1.2511493    
    212000   340.83443     -26.125236      350.50713      324.38189      2499.5993      4151.1492      1.2434033    
    213000   298.20714     -31.869178      306.6701       274.80092      2594.5061      4160.9722      1.2404679    
    214000   289.95368     -9.2014117      298.18241      288.981        2434.0324      4124.1356      1.2515477    
    215000   312.39474     -36.553134      321.26033      284.7072       3324.0147      4146.0614      1.2449291    
    216000   312.68067     -11.785273      321.55438      309.7691      -271.3882       4203.2813      1.2279817    
    217000   293.25949     -24.101723      301.58204      277.48032      671.0012       4218.5522      1.2235365    
    218000   282.35933     -27.52213       290.37254      262.85041      6089.0351      4035.4209      1.2790617    
    219000   301.06366     -14.332853      309.60768      295.27483     -1848.9336      4199.15        1.2291898    
    220000   310.72956     -44.069334      319.5479       275.47857      5992.9487      4160.1356      1.2407174    
    221000   277.73154     -17.881477      285.61341      267.73194     -1327.2884      4201.1278      1.2286111    
    222000   309.17636     -32.616529      317.95062      285.33409      942.03275      4205.3391      1.2273808    
    223000   309.42781     -47.69976       318.2092       270.50944      1907.2826      4181.3857      1.2344119    
    224000   302.32683     -35.977308      310.90671      274.9294      -1368.2237      4209.0133      1.2263094    
    225000   303.31401     -21.258657      311.92191      290.66325      2235.1903      4232.695       1.2194482    
    226000   287.35034     -44.285654      295.50519      251.21954     -3119.5677      4298.929       1.2006601    
    227000   291.32454     -29.867356      299.59217      269.72482     -3722.5267      4210.3538      1.2259189    
    228000   332.04765     -32.277528      341.47098      309.19345     -1522.2298      4229.8524      1.2202677    
    229000   297.18679     -39.296035      305.62079      266.32476      2041.4033      4197.423       1.2296956    
    230000   310.39803     -60.597187      319.20696      258.60977     -570.71569      4157.8243      1.241407     
    231000   305.35597     -44.856008      314.02181      269.1658      -1393.0632      4159.0781      1.2410328    
    232000   312.49916     -52.496673      321.36772      268.87105     -403.98662      4165.5611      1.2391013    
    233000   301.02689     -13.978616      309.56987      295.59125      7641.0729      4126.0496      1.2509671    
    234000   296.4699      -17.981025      304.88356      286.90254     -3150.1731      4233.2215      1.2192966    
    235000   300.88431     -41.910129      309.42324      267.51312     -693.92547      4187.8162      1.2325165    
    236000   297.51028     -28.683006      305.95346      277.27045     -152.03128      4181.4992      1.2343784    
    237000   296.68444     -14.569488      305.10419      290.5347       454.19022      4230.3326      1.2201292    
    238000   287.07222     -31.36236       295.21918      263.85682      1596.7571      4180.8888      1.2345586    
    239000   269.92529     -41.11218       277.58562      236.47344     -4626.0256      4194.7865      1.2304685    
    240000   296.0007      -64.970174      304.40104      239.43086     -221.24545      4171.3134      1.2373926    
    241000   309.67834     -53.02678       318.46684      265.44007      3849.8575      4167.3444      1.2385711    
    242000   322.03124     -28.089654      331.17031      303.08066     -1716.6677      4269.4579      1.208948     
    243000   285.42004     -27.431859      293.5201       266.08825     -171.80263      4221.1065      1.2227961    
    244000   286.55584     -15.281346      294.68814      279.4068       6740.9207      4140.598       1.2465717    
    245000   288.00363     -69.566395      296.17702      226.61063     -1144.8321      4203.7678      1.2278396    
    246000   335.16631     -24.055443      344.67815      320.62271     -160.53306      4200.9461      1.2286643    
    247000   310.72907     -53.551287      319.5474       265.99611     -600.27557      4181.1428      1.2344836    
    248000   302.14653     -30.649324      310.72129      280.07197     -1219.4411      4273.1425      1.2079055    
    249000   322.53222     -45.507274      331.68551      286.17824      2056.4081      4170.6865      1.2375786    
    250000   317.25022     -52.624653      326.25362      273.62896      1087.9823      4182.788       1.2339981    
    250091   288.23125     -17.870829      296.4111       278.54027      203.87216      4070.6604      1.2679889    
Loop time of 11.2695 on 1 procs for 50000 steps with 346 atoms

Performance: 383.337 ns/day, 0.063 hours/ns, 4436.771 timesteps/s, 1.535 Matom-step/s
99.5% CPU use with 1 MPI tasks x 1 OpenMP threads

MPI task timing breakdown:
Section |  min time  |  avg time  |  max time  |%varavg| %total
---------------------------------------------------------------
Pair    | 5.6922     | 5.6922     | 5.6922     |   0.0 | 50.51
Bond    | 1.9275     | 1.9275     | 1.9275     |   0.0 | 17.10
Neigh   | 2.7615     | 2.7615     | 2.7615     |   0.0 | 24.50
Comm    | 0.25294    | 0.25294    | 0.25294    |   0.0 |  2.24
Output  | 0.231      | 0.231      | 0.231      |   0.0 |  2.05
Modify  | 0.34272    | 0.34272    | 0.34272    |   0.0 |  3.04
Other   |            | 0.06155    |            |       |  0.55

Nlocal:            346 ave         346 max         346 min
Histogram: 1 0 0 0 0 0 0 0 0 0
Nghost:           2118 ave        2118 max        2118 min
Histogram: 1 0 0 0 0 0 0 0 0 0
Neighs:          19892 ave       19892 max       19892 min
Histogram: 1 0 0 0 0 0 0 0 0 0

Total # of neighbors = 19892
Ave neighs/atom = 57.491329
Ave special neighs/atom = 5.8208092
Neighbor list builds = 1374
Dangerous builds = 0
unfix integrate
unfix rho50k

# Compute initial state
fix 3 all box/relax  aniso 0.0
minimize ${etol} ${ftol} ${maxiter} ${maxeval}
minimize 0 ${ftol} ${maxiter} ${maxeval}
minimize 0 1e-10 ${maxiter} ${maxeval}
minimize 0 1e-10 100000 ${maxeval}
minimize 0 1e-10 100000 100000
Generated 6 of 6 mixed pair_coeff terms from arithmetic mixing rule
WARNING: Energy due to 3 extra global DOFs will be included in minimizer energies
 (src/min.cpp:222)
WARNING: Inconsistent image flags
For more information see https://docs.lammps.org/err0027 (src/domain.cpp:1052)
Per MPI rank memory allocation (min/avg/max) = 20.58 | 20.58 | 20.58 Mbytes
   Step          Temp          PotEng         KinEng         TotEng         Press          Volume        Density    
    250091   288.23125     -17.870829      296.4111       278.54027      203.87216      4070.6604      1.2679889    
    250241   288.23125     -201.46334      296.4111       94.947759      3441.9082      4073.2358      1.2671872    
Loop time of 0.0538985 on 1 procs for 150 steps with 346 atoms

100.0% CPU use with 1 MPI tasks x 1 OpenMP threads

Minimization stats:
  Stopping criterion = linesearch alpha is zero
  Energy initial, next-to-last, final = 
      -17.870829442508  -201.463338992555  -201.463338992555
  Force two-norm initial, final = 795.77468 163.49057
  Force max component initial, final = 381.1817 25.002348
  Final line search alpha, max atom move = 3.9915419e-13 9.9797921e-12
  Iterations, force evaluations = 150 279

MPI task timing breakdown:
Section |  min time  |  avg time  |  max time  |%varavg| %total
---------------------------------------------------------------
Pair    | 0.035176   | 0.035176   | 0.035176   |   0.0 | 65.26
Bond    | 0.010642   | 0.010642   | 0.010642   |   0.0 | 19.74
Neigh   | 0          | 0          | 0          |   0.0 |  0.00
Comm    | 0.0011633  | 0.0011633  | 0.0011633  |   0.0 |  2.16
Output  | 0.00083069 | 0.00083069 | 0.00083069 |   0.0 |  1.54
Modify  | 0          | 0          | 0          |   0.0 |  0.00
Other   |            | 0.006086   |            |       | 11.29

Nlocal:            346 ave         346 max         346 min
Histogram: 1 0 0 0 0 0 0 0 0 0
Nghost:           2130 ave        2130 max        2130 min
Histogram: 1 0 0 0 0 0 0 0 0 0
Neighs:          19955 ave       19955 max       19955 min
Histogram: 1 0 0 0 0 0 0 0 0 0

Total # of neighbors = 19955
Ave neighs/atom = 57.67341
Ave special neighs/atom = 5.8208092
Neighbor list builds = 0
Dangerous builds = 0

variable tmp equal pxx
variable pxx0 equal ${tmp}
variable pxx0 equal 3900.5346593223
variable tmp equal pyy
variable pyy0 equal ${tmp}
variable pyy0 equal 3149.051234101
variable tmp equal pzz
variable pzz0 equal ${tmp}
variable pzz0 equal 3276.13866480545
variable tmp equal pyz
variable pyz0 equal ${tmp}
variable pyz0 equal -857.250801797378
variable tmp equal pxz
variable pxz0 equal ${tmp}
variable pxz0 equal 1543.17944287491
variable tmp equal pxy
variable pxy0 equal ${tmp}
variable pxy0 equal -2464.14312005672

variable tmp equal lx
variable lx0 equal ${tmp}
variable lx0 equal 17.0977520750505
variable tmp equal ly
variable ly0 equal ${tmp}
variable ly0 equal 13.8839649553015
variable tmp equal lz
variable lz0 equal ${tmp}
variable lz0 equal 17.1588046538973

# These formulas define the derivatives w.r.t. strain components
# Constants uses $, variables use v_
variable d1 equal -(v_pxx1-${pxx0})/(v_delta/v_len0)*${cfac}
variable d1 equal -(v_pxx1-3900.5346593223)/(v_delta/v_len0)*${cfac}
variable d1 equal -(v_pxx1-3900.5346593223)/(v_delta/v_len0)*0.0001
variable d2 equal -(v_pyy1-${pyy0})/(v_delta/v_len0)*${cfac}
variable d2 equal -(v_pyy1-3149.051234101)/(v_delta/v_len0)*${cfac}
variable d2 equal -(v_pyy1-3149.051234101)/(v_delta/v_len0)*0.0001
variable d3 equal -(v_pzz1-${pzz0})/(v_delta/v_len0)*${cfac}
variable d3 equal -(v_pzz1-3276.13866480545)/(v_delta/v_len0)*${cfac}
variable d3 equal -(v_pzz1-3276.13866480545)/(v_delta/v_len0)*0.0001
variable d4 equal -(v_pyz1-${pyz0})/(v_delta/v_len0)*${cfac}
variable d4 equal -(v_pyz1--857.250801797378)/(v_delta/v_len0)*${cfac}
variable d4 equal -(v_pyz1--857.250801797378)/(v_delta/v_len0)*0.0001
variable d5 equal -(v_pxz1-${pxz0})/(v_delta/v_len0)*${cfac}
variable d5 equal -(v_pxz1-1543.17944287491)/(v_delta/v_len0)*${cfac}
variable d5 equal -(v_pxz1-1543.17944287491)/(v_delta/v_len0)*0.0001
variable d6 equal -(v_pxy1-${pxy0})/(v_delta/v_len0)*${cfac}
variable d6 equal -(v_pxy1--2464.14312005672)/(v_delta/v_len0)*${cfac}
variable d6 equal -(v_pxy1--2464.14312005672)/(v_delta/v_len0)*0.0001

# displace_atoms all random ${atomjiggle} ${atomjiggle} ${atomjiggle} 87287 units box

# Write restart
unfix 3
write_restart restart_333-BV-12-vasp.equil
System init for write_restart ...
Generated 6 of 6 mixed pair_coeff terms from arithmetic mixing rule

# uxx Perturbation

variable dir equal 1
include ./input/displace_333-BV-12-vasp.mod
if "${dir} == 1" then    "variable len0 equal ${lx0}"
variable len0 equal ${lx0}
variable len0 equal 17.0977520750505
if "${dir} == 2" then    "variable len0 equal ${ly0}"
if "${dir} == 3" then    "variable len0 equal ${lz0}"
if "${dir} == 4" then    "variable len0 equal ${lz0}"
if "${dir} == 5" then    "variable len0 equal ${lz0}"
if "${dir} == 6" then    "variable len0 equal ${ly0}"

# Reset box and simulation parameters

clear
OMP_NUM_THREADS environment is not set. Defaulting to 1 thread.
  using 1 OpenMP thread(s) per MPI task
box tilt large

The 'box' command has been removed and will be ignored

read_restart restart_333-BV-12-vasp.equil
Reading restart file ...
  restart file = 10 Sep 2025, LAMMPS = 10 Sep 2025
  restoring atom style full from restart
  triclinic box = (-0.010837038 0.048308022 0.043684173) to (17.086915 13.932273 17.202489) with tilt (-7.9851547 0.85373798 -2.7256427)
WARNING: Triclinic box skew is large. LAMMPS will run inefficiently. (src/domain.cpp:221)
  1 by 1 by 1 MPI processor grid
  restoring pair style lj/cut from restart
  restoring bond style harmonic from restart
  restoring angle style hybrid from restart
  restoring dihedral style harmonic from restart
  346 atoms
  351 bonds
  656 angles
  777 dihedrals
Finding 1-2 1-3 1-4 neighbors ...
  special bond factors lj:    0        0        1       
  special bond factors coul:  0        0        1       
     4 = max # of 1-2 neighbors
    10 = max # of 1-3 neighbors
    14 = max # of special neighbors
  special bonds CPU = 0.000 seconds
  read_restart CPU = 0.002 seconds
include ./input/angles_333-BV-12-vasp.mod
angle_style hybrid fourier cosine/periodic
angle_coeff 1 fourier 58.020602        0.343737        0.374972        0.281246
angle_coeff 2 fourier 157.882480        0.343737        0.374972        0.281246
angle_coeff 3 fourier 32.417871        0.343737        0.374972        0.281246
angle_coeff 4 fourier 83.380072        0.343737        0.374972        0.281246
angle_coeff 5 fourier 221.735285        0.343737        0.374972        0.281246
angle_coeff 6 fourier 114.246973        0.343737        0.374972        0.281246
angle_coeff 7 fourier 90.420412        0.343737        0.374972        0.281246
angle_coeff 8 fourier 75.498766        0.343737        0.374972        0.281246
angle_coeff 9 cosine/periodic 88.853997              -1               3

# Negative deformation

variable delta equal -${up}*${len0}
variable delta equal -0.02*${len0}
variable delta equal -0.02*17.0977520750505
variable deltaxy equal -${up}*xy
variable deltaxy equal -0.02*xy
variable deltaxz equal -${up}*xz
variable deltaxz equal -0.02*xz
variable deltayz equal -${up}*yz
variable deltayz equal -0.02*yz
if "${dir} == 1" then    "change_box all x delta 0 ${delta} xy delta ${deltaxy} xz delta ${deltaxz} remap units box"
change_box all x delta 0 ${delta} xy delta ${deltaxy} xz delta ${deltaxz} remap units box
change_box all x delta 0 -0.34195504150101 xy delta ${deltaxy} xz delta ${deltaxz} remap units box
change_box all x delta 0 -0.34195504150101 xy delta 0.159703094547101 xz delta ${deltaxz} remap units box
change_box all x delta 0 -0.34195504150101 xy delta 0.159703094547101 xz delta -0.0170747595903618 remap units box
Changing box ...
WARNING: Triclinic box skew is large. LAMMPS will run inefficiently. (src/domain.cpp:221)
  triclinic box = (-0.010837038 0.048308022 0.043684173) to (16.74496 13.932273 17.202489) with tilt (-7.9851547 0.85373798 -2.7256427)
WARNING: Triclinic box skew is large. LAMMPS will run inefficiently. (src/domain.cpp:221)
  triclinic box = (-0.010837038 0.048308022 0.043684173) to (16.74496 13.932273 17.202489) with tilt (-7.8254516 0.85373798 -2.7256427)
WARNING: Triclinic box skew is large. LAMMPS will run inefficiently. (src/domain.cpp:221)
  triclinic box = (-0.010837038 0.048308022 0.043684173) to (16.74496 13.932273 17.202489) with tilt (-7.8254516 0.83666322 -2.7256427)
if "${dir} == 2" then    "change_box all y delta 0 ${delta} yz delta ${deltayz} remap units box"
if "${dir} == 3" then    "change_box all z delta 0 ${delta} remap units box"
if "${dir} == 4" then    "change_box all yz delta ${delta} remap units box"
if "${dir} == 5" then    "change_box all xz delta ${delta} remap units box"
if "${dir} == 6" then    "change_box all xy delta ${delta} remap units box"

# Relax atoms positions

minimize ${etol} ${ftol} ${maxiter} ${maxeval}
minimize 0 ${ftol} ${maxiter} ${maxeval}
minimize 0 1e-10 ${maxiter} ${maxeval}
minimize 0 1e-10 100000 ${maxeval}
minimize 0 1e-10 100000 100000
Generated 6 of 6 mixed pair_coeff terms from arithmetic mixing rule
Neighbor list info ...
  update: every = 1 steps, delay = 0 steps, check = yes
  max neighbors/atom: 2000, page size: 100000
  master list distance cutoff = 7
  ghost atom cutoff = 7
  binsize = 3.5, bins = 8 5 5
  1 neighbor lists, perpetual/occasional/extra = 1 0 0
  (1) pair lj/cut, perpetual
      attributes: half, newton on
      pair build: half/bin/newton/tri
      stencil: half/bin/3d/tri
      bin: standard
WARNING: Inconsistent image flags
For more information see https://docs.lammps.org/err0027 (src/domain.cpp:1052)
Per MPI rank memory allocation (min/avg/max) = 19.5 | 19.5 | 19.5 Mbytes
   Step          Temp          E_pair         E_mol          TotEng         Press     
    250241   288.23125     -414.52249      235.99531      117.88392      22554.071    
    250281   288.23125     -453.35825      109.09283     -47.854319      2950.5364    
Loop time of 0.0234926 on 1 procs for 40 steps with 346 atoms

100.0% CPU use with 1 MPI tasks x 1 OpenMP threads

Minimization stats:
  Stopping criterion = linesearch alpha is zero
  Energy initial, next-to-last, final = 
     -178.527175376873  -344.265417258467  -344.265417258467
  Force two-norm initial, final = 223.41807 25.095599
  Force max component initial, final = 27.356558 4.6465768
  Final line search alpha, max atom move = 1.2394937e-11 5.7594027e-11
  Iterations, force evaluations = 40 137

MPI task timing breakdown:
Section |  min time  |  avg time  |  max time  |%varavg| %total
---------------------------------------------------------------
Pair    | 0.018069   | 0.018069   | 0.018069   |   0.0 | 76.91
Bond    | 0.0044281  | 0.0044281  | 0.0044281  |   0.0 | 18.85
Neigh   | 0          | 0          | 0          |   0.0 |  0.00
Comm    | 0.00056102 | 0.00056102 | 0.00056102 |   0.0 |  2.39
Output  | 0          | 0          | 0          |   0.0 |  0.00
Modify  | 0          | 0          | 0          |   0.0 |  0.00
Other   |            | 0.0004346  |            |       |  1.85

Nlocal:            346 ave         346 max         346 min
Histogram: 1 0 0 0 0 0 0 0 0 0
Nghost:           2138 ave        2138 max        2138 min
Histogram: 1 0 0 0 0 0 0 0 0 0
Neighs:          20352 ave       20352 max       20352 min
Histogram: 1 0 0 0 0 0 0 0 0 0

Total # of neighbors = 20352
Ave neighs/atom = 58.820809
Ave special neighs/atom = 5.8208092
Neighbor list builds = 0
Dangerous builds = 0

# Obtain new stress tensor

variable tmp equal pxx
variable pxx1 equal ${tmp}
variable pxx1 equal 5494.49322278999
variable tmp equal pyy
variable pyy1 equal ${tmp}
variable pyy1 equal 4823.86044018511
variable tmp equal pzz
variable pzz1 equal ${tmp}
variable pzz1 equal -1466.74460446038
variable tmp equal pxy
variable pxy1 equal ${tmp}
variable pxy1 equal -512.35519204428
variable tmp equal pxz
variable pxz1 equal ${tmp}
variable pxz1 equal 504.739285826573
variable tmp equal pyz
variable pyz1 equal ${tmp}
variable pyz1 equal 365.827382775108

# Compute elastic constant from pressure tensor

variable C1neg equal ${d1}
variable C1neg equal 7.96979281733845
variable C2neg equal ${d2}
variable C2neg equal 8.37404603042055
variable C3neg equal ${d3}
variable C3neg equal -23.7144163463291
variable C4neg equal ${d4}
variable C4neg equal 6.11539092286243
variable C5neg equal ${d5}
variable C5neg equal -5.19220078524168
variable C6neg equal ${d6}
variable C6neg equal 9.7589396400622

# Reset box and simulation parameters

clear
OMP_NUM_THREADS environment is not set. Defaulting to 1 thread.
  using 1 OpenMP thread(s) per MPI task
box tilt large

The 'box' command has been removed and will be ignored

read_restart restart_333-BV-12-vasp.equil
Reading restart file ...
  restart file = 10 Sep 2025, LAMMPS = 10 Sep 2025
  restoring atom style full from restart
  triclinic box = (-0.010837038 0.048308022 0.043684173) to (17.086915 13.932273 17.202489) with tilt (-7.9851547 0.85373798 -2.7256427)
WARNING: Triclinic box skew is large. LAMMPS will run inefficiently. (src/domain.cpp:221)
  1 by 1 by 1 MPI processor grid
  restoring pair style lj/cut from restart
  restoring bond style harmonic from restart
  restoring angle style hybrid from restart
  restoring dihedral style harmonic from restart
  346 atoms
  351 bonds
  656 angles
  777 dihedrals
Finding 1-2 1-3 1-4 neighbors ...
  special bond factors lj:    0        0        1       
  special bond factors coul:  0        0        1       
     4 = max # of 1-2 neighbors
    10 = max # of 1-3 neighbors
    14 = max # of special neighbors
  special bonds CPU = 0.000 seconds
  read_restart CPU = 0.001 seconds
include ./input/angles_333-BV-12-vasp.mod
angle_style hybrid fourier cosine/periodic
angle_coeff 1 fourier 58.020602        0.343737        0.374972        0.281246
angle_coeff 2 fourier 157.882480        0.343737        0.374972        0.281246
angle_coeff 3 fourier 32.417871        0.343737        0.374972        0.281246
angle_coeff 4 fourier 83.380072        0.343737        0.374972        0.281246
angle_coeff 5 fourier 221.735285        0.343737        0.374972        0.281246
angle_coeff 6 fourier 114.246973        0.343737        0.374972        0.281246
angle_coeff 7 fourier 90.420412        0.343737        0.374972        0.281246
angle_coeff 8 fourier 75.498766        0.343737        0.374972        0.281246
angle_coeff 9 cosine/periodic 88.853997              -1               3

# Positive deformation

variable delta equal ${up}*${len0}
variable delta equal 0.02*${len0}
variable delta equal 0.02*17.0977520750505
variable deltaxy equal ${up}*xy
variable deltaxy equal 0.02*xy
variable deltaxz equal ${up}*xz
variable deltaxz equal 0.02*xz
variable deltayz equal ${up}*yz
variable deltayz equal 0.02*yz
if "${dir} == 1" then    "change_box all x delta 0 ${delta} xy delta ${deltaxy} xz delta ${deltaxz} remap units box"
change_box all x delta 0 ${delta} xy delta ${deltaxy} xz delta ${deltaxz} remap units box
change_box all x delta 0 0.34195504150101 xy delta ${deltaxy} xz delta ${deltaxz} remap units box
change_box all x delta 0 0.34195504150101 xy delta -0.159703094547101 xz delta ${deltaxz} remap units box
change_box all x delta 0 0.34195504150101 xy delta -0.159703094547101 xz delta 0.0170747595903618 remap units box
Changing box ...
WARNING: Triclinic box skew is large. LAMMPS will run inefficiently. (src/domain.cpp:221)
  triclinic box = (-0.010837038 0.048308022 0.043684173) to (17.42887 13.932273 17.202489) with tilt (-7.9851547 0.85373798 -2.7256427)
WARNING: Triclinic box skew is large. LAMMPS will run inefficiently. (src/domain.cpp:221)
  triclinic box = (-0.010837038 0.048308022 0.043684173) to (17.42887 13.932273 17.202489) with tilt (-8.1448578 0.85373798 -2.7256427)
WARNING: Triclinic box skew is large. LAMMPS will run inefficiently. (src/domain.cpp:221)
  triclinic box = (-0.010837038 0.048308022 0.043684173) to (17.42887 13.932273 17.202489) with tilt (-8.1448578 0.87081274 -2.7256427)
if "${dir} == 2" then    "change_box all y delta 0 ${delta} yz delta ${deltayz} remap units box"
if "${dir} == 3" then    "change_box all z delta 0 ${delta} remap units box"
if "${dir} == 4" then    "change_box all yz delta ${delta} remap units box"
if "${dir} == 5" then    "change_box all xz delta ${delta} remap units box"
if "${dir} == 6" then    "change_box all xy delta ${delta} remap units box"

# Relax atoms positions

minimize ${etol} ${ftol} ${maxiter} ${maxeval}
minimize 0 ${ftol} ${maxiter} ${maxeval}
minimize 0 1e-10 ${maxiter} ${maxeval}
minimize 0 1e-10 100000 ${maxeval}
minimize 0 1e-10 100000 100000
Generated 6 of 6 mixed pair_coeff terms from arithmetic mixing rule
Neighbor list info ...
  update: every = 1 steps, delay = 0 steps, check = yes
  max neighbors/atom: 2000, page size: 100000
  master list distance cutoff = 7
  ghost atom cutoff = 7
  binsize = 3.5, bins = 8 5 5
  1 neighbor lists, perpetual/occasional/extra = 1 0 0
  (1) pair lj/cut, perpetual
      attributes: half, newton on
      pair build: half/bin/newton/tri
      stencil: half/bin/3d/tri
      bin: standard
WARNING: Inconsistent image flags
For more information see https://docs.lammps.org/err0027 (src/domain.cpp:1052)
Per MPI rank memory allocation (min/avg/max) = 19.5 | 19.5 | 19.5 Mbytes
   Step          Temp          E_pair         E_mol          TotEng         Press     
    250241   288.23125     -421.82508      244.99451      119.58052     -15108.115    
    250288   288.23125     -447.11604      104.4802      -46.224749     -818.28918    
Loop time of 0.0262622 on 1 procs for 47 steps with 346 atoms

100.0% CPU use with 1 MPI tasks x 1 OpenMP threads

Minimization stats:
  Stopping criterion = linesearch alpha is zero
  Energy initial, next-to-last, final = 
     -176.830574796906  -342.635846771785  -342.635846771785
  Force two-norm initial, final = 233.89136 20.3103
  Force max component initial, final = 28.427155 2.8923819
  Final line search alpha, max atom move = 2.6654181e-11 7.7094073e-11
  Iterations, force evaluations = 47 149

MPI task timing breakdown:
Section |  min time  |  avg time  |  max time  |%varavg| %total
---------------------------------------------------------------
Pair    | 0.018308   | 0.018308   | 0.018308   |   0.0 | 69.71
Bond    | 0.0048621  | 0.0048621  | 0.0048621  |   0.0 | 18.51
Neigh   | 0.0019527  | 0.0019527  | 0.0019527  |   0.0 |  7.44
Comm    | 0.00064812 | 0.00064812 | 0.00064812 |   0.0 |  2.47
Output  | 0          | 0          | 0          |   0.0 |  0.00
Modify  | 0          | 0          | 0          |   0.0 |  0.00
Other   |            | 0.0004911  |            |       |  1.87

Nlocal:            346 ave         346 max         346 min
Histogram: 1 0 0 0 0 0 0 0 0 0
Nghost:           2095 ave        2095 max        2095 min
Histogram: 1 0 0 0 0 0 0 0 0 0
Neighs:          19458 ave       19458 max       19458 min
Histogram: 1 0 0 0 0 0 0 0 0 0

Total # of neighbors = 19458
Ave neighs/atom = 56.236994
Ave special neighs/atom = 5.8208092
Neighbor list builds = 1
Dangerous builds = 0

# Obtain new stress tensor

variable tmp equal pe
variable e1 equal ${tmp}
variable e1 equal -342.635846771785
variable tmp equal press
variable p1 equal ${tmp}
variable p1 equal -818.289182311084
variable tmp equal pxx
variable pxx1 equal ${tmp}
variable pxx1 equal -1240.73547818395
variable tmp equal pyy
variable pyy1 equal ${tmp}
variable pyy1 equal 2365.28673006037
variable tmp equal pzz
variable pzz1 equal ${tmp}
variable pzz1 equal -3579.41879880967
variable tmp equal pxy
variable pxy1 equal ${tmp}
variable pxy1 equal 72.5817386411909
variable tmp equal pxz
variable pxz1 equal ${tmp}
variable pxz1 equal 364.098731355403
variable tmp equal pyz
variable pyz1 equal ${tmp}
variable pyz1 equal 475.849945569806

# Compute elastic constant from pressure tensor

variable C1pos equal ${d1}
variable C1pos equal 25.7063506875312
variable C2pos equal ${d2}
variable C2pos equal 3.91882252020315
variable C3pos equal ${d3}
variable C3pos equal 34.2777873180756
variable C4pos equal ${d4}
variable C4pos equal -6.66550373683592
variable C5pos equal ${d5}
variable C5pos equal 5.89540355759753
variable C6pos equal ${d6}
variable C6pos equal -12.6836242934896

# Combine positive and negative

variable C1${dir} equal 0.5*(${C1neg}+${C1pos})
variable C11 equal 0.5*(${C1neg}+${C1pos})
variable C11 equal 0.5*(7.96979281733845+${C1pos})
variable C11 equal 0.5*(7.96979281733845+25.7063506875312)
variable C2${dir} equal 0.5*(${C2neg}+${C2pos})
variable C21 equal 0.5*(${C2neg}+${C2pos})
variable C21 equal 0.5*(8.37404603042055+${C2pos})
variable C21 equal 0.5*(8.37404603042055+3.91882252020315)
variable C3${dir} equal 0.5*(${C3neg}+${C3pos})
variable C31 equal 0.5*(${C3neg}+${C3pos})
variable C31 equal 0.5*(-23.7144163463291+${C3pos})
variable C31 equal 0.5*(-23.7144163463291+34.2777873180756)
variable C4${dir} equal 0.5*(${C4neg}+${C4pos})
variable C41 equal 0.5*(${C4neg}+${C4pos})
variable C41 equal 0.5*(6.11539092286243+${C4pos})
variable C41 equal 0.5*(6.11539092286243+-6.66550373683592)
variable C5${dir} equal 0.5*(${C5neg}+${C5pos})
variable C51 equal 0.5*(${C5neg}+${C5pos})
variable C51 equal 0.5*(-5.19220078524168+${C5pos})
variable C51 equal 0.5*(-5.19220078524168+5.89540355759753)
variable C6${dir} equal 0.5*(${C6neg}+${C6pos})
variable C61 equal 0.5*(${C6neg}+${C6pos})
variable C61 equal 0.5*(9.7589396400622+${C6pos})
variable C61 equal 0.5*(9.7589396400622+-12.6836242934896)

# Delete dir to make sure it is not reused

variable dir delete

# uyy Perturbation

variable dir equal 2
include ./input/displace_333-BV-12-vasp.mod
if "${dir} == 1" then    "variable len0 equal ${lx0}"
if "${dir} == 2" then    "variable len0 equal ${ly0}"
variable len0 equal ${ly0}
variable len0 equal 13.8839649553015
if "${dir} == 3" then    "variable len0 equal ${lz0}"
if "${dir} == 4" then    "variable len0 equal ${lz0}"
if "${dir} == 5" then    "variable len0 equal ${lz0}"
if "${dir} == 6" then    "variable len0 equal ${ly0}"

# Reset box and simulation parameters

clear
OMP_NUM_THREADS environment is not set. Defaulting to 1 thread.
  using 1 OpenMP thread(s) per MPI task
box tilt large

The 'box' command has been removed and will be ignored

read_restart restart_333-BV-12-vasp.equil
Reading restart file ...
  restart file = 10 Sep 2025, LAMMPS = 10 Sep 2025
  restoring atom style full from restart
  triclinic box = (-0.010837038 0.048308022 0.043684173) to (17.086915 13.932273 17.202489) with tilt (-7.9851547 0.85373798 -2.7256427)
WARNING: Triclinic box skew is large. LAMMPS will run inefficiently. (src/domain.cpp:221)
  1 by 1 by 1 MPI processor grid
  restoring pair style lj/cut from restart
  restoring bond style harmonic from restart
  restoring angle style hybrid from restart
  restoring dihedral style harmonic from restart
  346 atoms
  351 bonds
  656 angles
  777 dihedrals
Finding 1-2 1-3 1-4 neighbors ...
  special bond factors lj:    0        0        1       
  special bond factors coul:  0        0        1       
     4 = max # of 1-2 neighbors
    10 = max # of 1-3 neighbors
    14 = max # of special neighbors
  special bonds CPU = 0.000 seconds
  read_restart CPU = 0.001 seconds
include ./input/angles_333-BV-12-vasp.mod
angle_style hybrid fourier cosine/periodic
angle_coeff 1 fourier 58.020602        0.343737        0.374972        0.281246
angle_coeff 2 fourier 157.882480        0.343737        0.374972        0.281246
angle_coeff 3 fourier 32.417871        0.343737        0.374972        0.281246
angle_coeff 4 fourier 83.380072        0.343737        0.374972        0.281246
angle_coeff 5 fourier 221.735285        0.343737        0.374972        0.281246
angle_coeff 6 fourier 114.246973        0.343737        0.374972        0.281246
angle_coeff 7 fourier 90.420412        0.343737        0.374972        0.281246
angle_coeff 8 fourier 75.498766        0.343737        0.374972        0.281246
angle_coeff 9 cosine/periodic 88.853997              -1               3

# Negative deformation

variable delta equal -${up}*${len0}
variable delta equal -0.02*${len0}
variable delta equal -0.02*13.8839649553015
variable deltaxy equal -${up}*xy
variable deltaxy equal -0.02*xy
variable deltaxz equal -${up}*xz
variable deltaxz equal -0.02*xz
variable deltayz equal -${up}*yz
variable deltayz equal -0.02*yz
if "${dir} == 1" then    "change_box all x delta 0 ${delta} xy delta ${deltaxy} xz delta ${deltaxz} remap units box"
if "${dir} == 2" then    "change_box all y delta 0 ${delta} yz delta ${deltayz} remap units box"
change_box all y delta 0 ${delta} yz delta ${deltayz} remap units box
change_box all y delta 0 -0.27767929910603 yz delta ${deltayz} remap units box
change_box all y delta 0 -0.27767929910603 yz delta 0.054512854166833 remap units box
Changing box ...
WARNING: Triclinic box skew is large. LAMMPS will run inefficiently. (src/domain.cpp:221)
  triclinic box = (-0.010837038 0.048308022 0.043684173) to (17.086915 13.654594 17.202489) with tilt (-7.9851547 0.85373798 -2.7256427)
WARNING: Triclinic box skew is large. LAMMPS will run inefficiently. (src/domain.cpp:221)
  triclinic box = (-0.010837038 0.048308022 0.043684173) to (17.086915 13.654594 17.202489) with tilt (-7.9851547 0.85373798 -2.6711299)
if "${dir} == 3" then    "change_box all z delta 0 ${delta} remap units box"
if "${dir} == 4" then    "change_box all yz delta ${delta} remap units box"
if "${dir} == 5" then    "change_box all xz delta ${delta} remap units box"
if "${dir} == 6" then    "change_box all xy delta ${delta} remap units box"

# Relax atoms positions

minimize ${etol} ${ftol} ${maxiter} ${maxeval}
minimize 0 ${ftol} ${maxiter} ${maxeval}
minimize 0 1e-10 ${maxiter} ${maxeval}
minimize 0 1e-10 100000 ${maxeval}
minimize 0 1e-10 100000 100000
Generated 6 of 6 mixed pair_coeff terms from arithmetic mixing rule
Neighbor list info ...
  update: every = 1 steps, delay = 0 steps, check = yes
  max neighbors/atom: 2000, page size: 100000
  master list distance cutoff = 7
  ghost atom cutoff = 7
  binsize = 3.5, bins = 8 5 5
  1 neighbor lists, perpetual/occasional/extra = 1 0 0
  (1) pair lj/cut, perpetual
      attributes: half, newton on
      pair build: half/bin/newton/tri
      stencil: half/bin/3d/tri
      bin: standard
WARNING: Inconsistent image flags
For more information see https://docs.lammps.org/err0027 (src/domain.cpp:1052)
Per MPI rank memory allocation (min/avg/max) = 19.5 | 19.5 | 19.5 Mbytes
   Step          Temp          E_pair         E_mol          TotEng         Press     
    250241   288.23125     -417.75261      238.2905       116.94899      22251.086    
    250299   288.23125     -452.53672      104.92799     -51.197624      3567.331     
Loop time of 0.0313662 on 1 procs for 58 steps with 346 atoms

100.0% CPU use with 1 MPI tasks x 1 OpenMP threads

Minimization stats:
  Stopping criterion = linesearch alpha is zero
  Energy initial, next-to-last, final = 
     -179.462110752939  -347.608722047102  -347.608722047102
  Force two-norm initial, final = 223.17099 16.255994
  Force max component initial, final = 26.599198 2.8131446
  Final line search alpha, max atom move = 4.3437708e-11 1.2219655e-10
  Iterations, force evaluations = 58 169

MPI task timing breakdown:
Section |  min time  |  avg time  |  max time  |%varavg| %total
---------------------------------------------------------------
Pair    | 0.022339   | 0.022339   | 0.022339   |   0.0 | 71.22
Bond    | 0.0055923  | 0.0055923  | 0.0055923  |   0.0 | 17.83
Neigh   | 0.0020806  | 0.0020806  | 0.0020806  |   0.0 |  6.63
Comm    | 0.00075667 | 0.00075667 | 0.00075667 |   0.0 |  2.41
Output  | 0          | 0          | 0          |   0.0 |  0.00
Modify  | 0          | 0          | 0          |   0.0 |  0.00
Other   |            | 0.0005982  |            |       |  1.91

Nlocal:            346 ave         346 max         346 min
Histogram: 1 0 0 0 0 0 0 0 0 0
Nghost:           2150 ave        2150 max        2150 min
Histogram: 1 0 0 0 0 0 0 0 0 0
Neighs:          20319 ave       20319 max       20319 min
Histogram: 1 0 0 0 0 0 0 0 0 0

Total # of neighbors = 20319
Ave neighs/atom = 58.725434
Ave special neighs/atom = 5.8208092
Neighbor list builds = 1
Dangerous builds = 0

# Obtain new stress tensor

variable tmp equal pxx
variable pxx1 equal ${tmp}
variable pxx1 equal 3557.21620330026
variable tmp equal pyy
variable pyy1 equal ${tmp}
variable pyy1 equal 6937.12064468098
variable tmp equal pzz
variable pzz1 equal ${tmp}
variable pzz1 equal 207.656087181262
variable tmp equal pxy
variable pxy1 equal ${tmp}
variable pxy1 equal -560.738501142707
variable tmp equal pxz
variable pxz1 equal ${tmp}
variable pxz1 equal 855.112503448189
variable tmp equal pyz
variable pyz1 equal ${tmp}
variable pyz1 equal 1036.2442319558

# Compute elastic constant from pressure tensor

variable C1neg equal ${d1}
variable C1neg equal -1.7165922801102
variable C2neg equal ${d2}
variable C2neg equal 18.9403470528999
variable C3neg equal ${d3}
variable C3neg equal -15.3424128881209
variable C4neg equal ${d4}
variable C4neg equal 9.46747516876589
variable C5neg equal ${d5}
variable C5neg equal -3.4403346971336
variable C6neg equal ${d6}
variable C6neg equal 9.51702309457007

# Reset box and simulation parameters

clear
OMP_NUM_THREADS environment is not set. Defaulting to 1 thread.
  using 1 OpenMP thread(s) per MPI task
box tilt large

The 'box' command has been removed and will be ignored

read_restart restart_333-BV-12-vasp.equil
Reading restart file ...
  restart file = 10 Sep 2025, LAMMPS = 10 Sep 2025
  restoring atom style full from restart
  triclinic box = (-0.010837038 0.048308022 0.043684173) to (17.086915 13.932273 17.202489) with tilt (-7.9851547 0.85373798 -2.7256427)
WARNING: Triclinic box skew is large. LAMMPS will run inefficiently. (src/domain.cpp:221)
  1 by 1 by 1 MPI processor grid
  restoring pair style lj/cut from restart
  restoring bond style harmonic from restart
  restoring angle style hybrid from restart
  restoring dihedral style harmonic from restart
  346 atoms
  351 bonds
  656 angles
  777 dihedrals
Finding 1-2 1-3 1-4 neighbors ...
  special bond factors lj:    0        0        1       
  special bond factors coul:  0        0        1       
     4 = max # of 1-2 neighbors
    10 = max # of 1-3 neighbors
    14 = max # of special neighbors
  special bonds CPU = 0.000 seconds
  read_restart CPU = 0.001 seconds
include ./input/angles_333-BV-12-vasp.mod
angle_style hybrid fourier cosine/periodic
angle_coeff 1 fourier 58.020602        0.343737        0.374972        0.281246
angle_coeff 2 fourier 157.882480        0.343737        0.374972        0.281246
angle_coeff 3 fourier 32.417871        0.343737        0.374972        0.281246
angle_coeff 4 fourier 83.380072        0.343737        0.374972        0.281246
angle_coeff 5 fourier 221.735285        0.343737        0.374972        0.281246
angle_coeff 6 fourier 114.246973        0.343737        0.374972        0.281246
angle_coeff 7 fourier 90.420412        0.343737        0.374972        0.281246
angle_coeff 8 fourier 75.498766        0.343737        0.374972        0.281246
angle_coeff 9 cosine/periodic 88.853997              -1               3

# Positive deformation

variable delta equal ${up}*${len0}
variable delta equal 0.02*${len0}
variable delta equal 0.02*13.8839649553015
variable deltaxy equal ${up}*xy
variable deltaxy equal 0.02*xy
variable deltaxz equal ${up}*xz
variable deltaxz equal 0.02*xz
variable deltayz equal ${up}*yz
variable deltayz equal 0.02*yz
if "${dir} == 1" then    "change_box all x delta 0 ${delta} xy delta ${deltaxy} xz delta ${deltaxz} remap units box"
if "${dir} == 2" then    "change_box all y delta 0 ${delta} yz delta ${deltayz} remap units box"
change_box all y delta 0 ${delta} yz delta ${deltayz} remap units box
change_box all y delta 0 0.27767929910603 yz delta ${deltayz} remap units box
change_box all y delta 0 0.27767929910603 yz delta -0.054512854166833 remap units box
Changing box ...
WARNING: Triclinic box skew is large. LAMMPS will run inefficiently. (src/domain.cpp:221)
  triclinic box = (-0.010837038 0.048308022 0.043684173) to (17.086915 14.209952 17.202489) with tilt (-7.9851547 0.85373798 -2.7256427)
WARNING: Triclinic box skew is large. LAMMPS will run inefficiently. (src/domain.cpp:221)
  triclinic box = (-0.010837038 0.048308022 0.043684173) to (17.086915 14.209952 17.202489) with tilt (-7.9851547 0.85373798 -2.7801556)
if "${dir} == 3" then    "change_box all z delta 0 ${delta} remap units box"
if "${dir} == 4" then    "change_box all yz delta ${delta} remap units box"
if "${dir} == 5" then    "change_box all xz delta ${delta} remap units box"
if "${dir} == 6" then    "change_box all xy delta ${delta} remap units box"

# Relax atoms positions

minimize ${etol} ${ftol} ${maxiter} ${maxeval}
minimize 0 ${ftol} ${maxiter} ${maxeval}
minimize 0 1e-10 ${maxiter} ${maxeval}
minimize 0 1e-10 100000 ${maxeval}
minimize 0 1e-10 100000 100000
Generated 6 of 6 mixed pair_coeff terms from arithmetic mixing rule
Neighbor list info ...
  update: every = 1 steps, delay = 0 steps, check = yes
  max neighbors/atom: 2000, page size: 100000
  master list distance cutoff = 7
  ghost atom cutoff = 7
  binsize = 3.5, bins = 8 5 5
  1 neighbor lists, perpetual/occasional/extra = 1 0 0
  (1) pair lj/cut, perpetual
      attributes: half, newton on
      pair build: half/bin/newton/tri
      stencil: half/bin/3d/tri
      bin: standard
WARNING: Inconsistent image flags
For more information see https://docs.lammps.org/err0027 (src/domain.cpp:1052)
Per MPI rank memory allocation (min/avg/max) = 19.5 | 19.5 | 19.5 Mbytes
   Step          Temp          E_pair         E_mol          TotEng         Press     
    250241   288.23125     -420.96153      242.20415      117.65372     -14900.193    
    250301   288.23125     -446.5811       99.240292     -50.929715     -854.24203    
Loop time of 0.0305501 on 1 procs for 60 steps with 346 atoms

100.0% CPU use with 1 MPI tasks x 1 OpenMP threads

Minimization stats:
  Stopping criterion = linesearch alpha is zero
  Energy initial, next-to-last, final = 
     -178.757379281782  -347.340813330807  -347.340813330807
  Force two-norm initial, final = 223.68712 16.211061
  Force max component initial, final = 29.742728 2.5683905
  Final line search alpha, max atom move = 2.7739723e-11 7.1246441e-11
  Iterations, force evaluations = 60 175

MPI task timing breakdown:
Section |  min time  |  avg time  |  max time  |%varavg| %total
---------------------------------------------------------------
Pair    | 0.021599   | 0.021599   | 0.021599   |   0.0 | 70.70
Bond    | 0.0056606  | 0.0056606  | 0.0056606  |   0.0 | 18.53
Neigh   | 0.0019441  | 0.0019441  | 0.0019441  |   0.0 |  6.36
Comm    | 0.00075804 | 0.00075804 | 0.00075804 |   0.0 |  2.48
Output  | 0          | 0          | 0          |   0.0 |  0.00
Modify  | 0          | 0          | 0          |   0.0 |  0.00
Other   |            | 0.0005882  |            |       |  1.93

Nlocal:            346 ave         346 max         346 min
Histogram: 1 0 0 0 0 0 0 0 0 0
Nghost:           2088 ave        2088 max        2088 min
Histogram: 1 0 0 0 0 0 0 0 0 0
Neighs:          19470 ave       19470 max       19470 min
Histogram: 1 0 0 0 0 0 0 0 0 0

Total # of neighbors = 19470
Ave neighs/atom = 56.271676
Ave special neighs/atom = 5.8208092
Neighbor list builds = 1
Dangerous builds = 0

# Obtain new stress tensor

variable tmp equal pe
variable e1 equal ${tmp}
variable e1 equal -347.340813330807
variable tmp equal press
variable p1 equal ${tmp}
variable p1 equal -854.24202684196
variable tmp equal pxx
variable pxx1 equal ${tmp}
variable pxx1 equal 811.983790551285
variable tmp equal pyy
variable pyy1 equal ${tmp}
variable pyy1 equal -928.920363962446
variable tmp equal pzz
variable pzz1 equal ${tmp}
variable pzz1 equal -2445.78950711472
variable tmp equal pxy
variable pxy1 equal ${tmp}
variable pxy1 equal 292.106373797761
variable tmp equal pxz
variable pxz1 equal ${tmp}
variable pxz1 equal 888.16796245742
variable tmp equal pyz
variable pyz1 equal ${tmp}
variable pyz1 equal 627.80604536554

# Compute elastic constant from pressure tensor

variable C1pos equal ${d1}
variable C1pos equal 15.4427543438551
variable C2pos equal ${d2}
variable C2pos equal 20.3898579903172
variable C3pos equal ${d3}
variable C3pos equal 28.6096408596009
variable C4pos equal ${d4}
variable C4pos equal -7.42528423581459
variable C5pos equal ${d5}
variable C5pos equal 3.27505740208745
variable C6pos equal ${d6}
variable C6pos equal -13.7812474692724

# Combine positive and negative

variable C1${dir} equal 0.5*(${C1neg}+${C1pos})
variable C12 equal 0.5*(${C1neg}+${C1pos})
variable C12 equal 0.5*(-1.7165922801102+${C1pos})
variable C12 equal 0.5*(-1.7165922801102+15.4427543438551)
variable C2${dir} equal 0.5*(${C2neg}+${C2pos})
variable C22 equal 0.5*(${C2neg}+${C2pos})
variable C22 equal 0.5*(18.9403470528999+${C2pos})
variable C22 equal 0.5*(18.9403470528999+20.3898579903172)
variable C3${dir} equal 0.5*(${C3neg}+${C3pos})
variable C32 equal 0.5*(${C3neg}+${C3pos})
variable C32 equal 0.5*(-15.3424128881209+${C3pos})
variable C32 equal 0.5*(-15.3424128881209+28.6096408596009)
variable C4${dir} equal 0.5*(${C4neg}+${C4pos})
variable C42 equal 0.5*(${C4neg}+${C4pos})
variable C42 equal 0.5*(9.46747516876589+${C4pos})
variable C42 equal 0.5*(9.46747516876589+-7.42528423581459)
variable C5${dir} equal 0.5*(${C5neg}+${C5pos})
variable C52 equal 0.5*(${C5neg}+${C5pos})
variable C52 equal 0.5*(-3.4403346971336+${C5pos})
variable C52 equal 0.5*(-3.4403346971336+3.27505740208745)
variable C6${dir} equal 0.5*(${C6neg}+${C6pos})
variable C62 equal 0.5*(${C6neg}+${C6pos})
variable C62 equal 0.5*(9.51702309457007+${C6pos})
variable C62 equal 0.5*(9.51702309457007+-13.7812474692724)

# Delete dir to make sure it is not reused

variable dir delete

# uzz Perturbation

variable dir equal 3
include ./input/displace_333-BV-12-vasp.mod
if "${dir} == 1" then    "variable len0 equal ${lx0}"
if "${dir} == 2" then    "variable len0 equal ${ly0}"
if "${dir} == 3" then    "variable len0 equal ${lz0}"
variable len0 equal ${lz0}
variable len0 equal 17.1588046538973
if "${dir} == 4" then    "variable len0 equal ${lz0}"
if "${dir} == 5" then    "variable len0 equal ${lz0}"
if "${dir} == 6" then    "variable len0 equal ${ly0}"

# Reset box and simulation parameters

clear
OMP_NUM_THREADS environment is not set. Defaulting to 1 thread.
  using 1 OpenMP thread(s) per MPI task
box tilt large

The 'box' command has been removed and will be ignored

read_restart restart_333-BV-12-vasp.equil
Reading restart file ...
  restart file = 10 Sep 2025, LAMMPS = 10 Sep 2025
  restoring atom style full from restart
  triclinic box = (-0.010837038 0.048308022 0.043684173) to (17.086915 13.932273 17.202489) with tilt (-7.9851547 0.85373798 -2.7256427)
WARNING: Triclinic box skew is large. LAMMPS will run inefficiently. (src/domain.cpp:221)
  1 by 1 by 1 MPI processor grid
  restoring pair style lj/cut from restart
  restoring bond style harmonic from restart
  restoring angle style hybrid from restart
  restoring dihedral style harmonic from restart
  346 atoms
  351 bonds
  656 angles
  777 dihedrals
Finding 1-2 1-3 1-4 neighbors ...
  special bond factors lj:    0        0        1       
  special bond factors coul:  0        0        1       
     4 = max # of 1-2 neighbors
    10 = max # of 1-3 neighbors
    14 = max # of special neighbors
  special bonds CPU = 0.000 seconds
  read_restart CPU = 0.001 seconds
include ./input/angles_333-BV-12-vasp.mod
angle_style hybrid fourier cosine/periodic
angle_coeff 1 fourier 58.020602        0.343737        0.374972        0.281246
angle_coeff 2 fourier 157.882480        0.343737        0.374972        0.281246
angle_coeff 3 fourier 32.417871        0.343737        0.374972        0.281246
angle_coeff 4 fourier 83.380072        0.343737        0.374972        0.281246
angle_coeff 5 fourier 221.735285        0.343737        0.374972        0.281246
angle_coeff 6 fourier 114.246973        0.343737        0.374972        0.281246
angle_coeff 7 fourier 90.420412        0.343737        0.374972        0.281246
angle_coeff 8 fourier 75.498766        0.343737        0.374972        0.281246
angle_coeff 9 cosine/periodic 88.853997              -1               3

# Negative deformation

variable delta equal -${up}*${len0}
variable delta equal -0.02*${len0}
variable delta equal -0.02*17.1588046538973
variable deltaxy equal -${up}*xy
variable deltaxy equal -0.02*xy
variable deltaxz equal -${up}*xz
variable deltaxz equal -0.02*xz
variable deltayz equal -${up}*yz
variable deltayz equal -0.02*yz
if "${dir} == 1" then    "change_box all x delta 0 ${delta} xy delta ${deltaxy} xz delta ${deltaxz} remap units box"
if "${dir} == 2" then    "change_box all y delta 0 ${delta} yz delta ${deltayz} remap units box"
if "${dir} == 3" then    "change_box all z delta 0 ${delta} remap units box"
change_box all z delta 0 ${delta} remap units box
change_box all z delta 0 -0.343176093077946 remap units box
Changing box ...
WARNING: Triclinic box skew is large. LAMMPS will run inefficiently. (src/domain.cpp:221)
  triclinic box = (-0.010837038 0.048308022 0.043684173) to (17.086915 13.932273 16.859313) with tilt (-7.9851547 0.85373798 -2.7256427)
if "${dir} == 4" then    "change_box all yz delta ${delta} remap units box"
if "${dir} == 5" then    "change_box all xz delta ${delta} remap units box"
if "${dir} == 6" then    "change_box all xy delta ${delta} remap units box"

# Relax atoms positions

minimize ${etol} ${ftol} ${maxiter} ${maxeval}
minimize 0 ${ftol} ${maxiter} ${maxeval}
minimize 0 1e-10 ${maxiter} ${maxeval}
minimize 0 1e-10 100000 ${maxeval}
minimize 0 1e-10 100000 100000
Generated 6 of 6 mixed pair_coeff terms from arithmetic mixing rule
Neighbor list info ...
  update: every = 1 steps, delay = 0 steps, check = yes
  max neighbors/atom: 2000, page size: 100000
  master list distance cutoff = 7
  ghost atom cutoff = 7
  binsize = 3.5, bins = 8 5 5
  1 neighbor lists, perpetual/occasional/extra = 1 0 0
  (1) pair lj/cut, perpetual
      attributes: half, newton on
      pair build: half/bin/newton/tri
      stencil: half/bin/3d/tri
      bin: standard
WARNING: Inconsistent image flags
For more information see https://docs.lammps.org/err0027 (src/domain.cpp:1052)
Per MPI rank memory allocation (min/avg/max) = 19.5 | 19.5 | 19.5 Mbytes
   Step          Temp          E_pair         E_mol          TotEng         Press     
    250241   288.23125     -417.8122       239.7167       118.3156       22929.707    
    250286   288.23125     -455.60026      105.38047     -53.80869       3160.8098    
Loop time of 0.0278813 on 1 procs for 45 steps with 346 atoms

100.0% CPU use with 1 MPI tasks x 1 OpenMP threads

Minimization stats:
  Stopping criterion = linesearch alpha is zero
  Energy initial, next-to-last, final = 
     -178.095497440406   -350.21978801531   -350.21978801531
  Force two-norm initial, final = 226.56009 20.602793
  Force max component initial, final = 22.789512 3.0809071
  Final line search alpha, max atom move = 2.764297e-11 8.5165423e-11
  Iterations, force evaluations = 45 145

MPI task timing breakdown:
Section |  min time  |  avg time  |  max time  |%varavg| %total
---------------------------------------------------------------
Pair    | 0.021206   | 0.021206   | 0.021206   |   0.0 | 76.06
Bond    | 0.0054291  | 0.0054291  | 0.0054291  |   0.0 | 19.47
Neigh   | 0          | 0          | 0          |   0.0 |  0.00
Comm    | 0.00071561 | 0.00071561 | 0.00071561 |   0.0 |  2.57
Output  | 0          | 0          | 0          |   0.0 |  0.00
Modify  | 0          | 0          | 0          |   0.0 |  0.00
Other   |            | 0.0005308  |            |       |  1.90

Nlocal:            346 ave         346 max         346 min
Histogram: 1 0 0 0 0 0 0 0 0 0
Nghost:           2140 ave        2140 max        2140 min
Histogram: 1 0 0 0 0 0 0 0 0 0
Neighs:          20362 ave       20362 max       20362 min
Histogram: 1 0 0 0 0 0 0 0 0 0

Total # of neighbors = 20362
Ave neighs/atom = 58.849711
Ave special neighs/atom = 5.8208092
Neighbor list builds = 0
Dangerous builds = 0

# Obtain new stress tensor

variable tmp equal pxx
variable pxx1 equal ${tmp}
variable pxx1 equal 3201.04062795944
variable tmp equal pyy
variable pyy1 equal ${tmp}
variable pyy1 equal 4512.04851596239
variable tmp equal pzz
variable pzz1 equal ${tmp}
variable pzz1 equal 1769.34022553716
variable tmp equal pxy
variable pxy1 equal ${tmp}
variable pxy1 equal 23.7990645486398
variable tmp equal pxz
variable pxz1 equal ${tmp}
variable pxz1 equal 744.117771007956
variable tmp equal pyz
variable pyz1 equal ${tmp}
variable pyz1 equal 848.796777937504

# Compute elastic constant from pressure tensor

variable C1neg equal ${d1}
variable C1neg equal -3.4974701568143
variable C2neg equal ${d2}
variable C2neg equal 6.81498640930695
variable C3neg equal ${d3}
variable C3neg equal -7.53399219634145
variable C4neg equal ${d4}
variable C4neg equal 8.53023789867441
variable C5neg equal ${d5}
variable C5neg equal -3.99530835933477
variable C6neg equal ${d6}
variable C6neg equal 12.4397109230268

# Reset box and simulation parameters

clear
OMP_NUM_THREADS environment is not set. Defaulting to 1 thread.
  using 1 OpenMP thread(s) per MPI task
box tilt large

The 'box' command has been removed and will be ignored

read_restart restart_333-BV-12-vasp.equil
Reading restart file ...
  restart file = 10 Sep 2025, LAMMPS = 10 Sep 2025
  restoring atom style full from restart
  triclinic box = (-0.010837038 0.048308022 0.043684173) to (17.086915 13.932273 17.202489) with tilt (-7.9851547 0.85373798 -2.7256427)
WARNING: Triclinic box skew is large. LAMMPS will run inefficiently. (src/domain.cpp:221)
  1 by 1 by 1 MPI processor grid
  restoring pair style lj/cut from restart
  restoring bond style harmonic from restart
  restoring angle style hybrid from restart
  restoring dihedral style harmonic from restart
  346 atoms
  351 bonds
  656 angles
  777 dihedrals
Finding 1-2 1-3 1-4 neighbors ...
  special bond factors lj:    0        0        1       
  special bond factors coul:  0        0        1       
     4 = max # of 1-2 neighbors
    10 = max # of 1-3 neighbors
    14 = max # of special neighbors
  special bonds CPU = 0.000 seconds
  read_restart CPU = 0.001 seconds
include ./input/angles_333-BV-12-vasp.mod
angle_style hybrid fourier cosine/periodic
angle_coeff 1 fourier 58.020602        0.343737        0.374972        0.281246
angle_coeff 2 fourier 157.882480        0.343737        0.374972        0.281246
angle_coeff 3 fourier 32.417871        0.343737        0.374972        0.281246
angle_coeff 4 fourier 83.380072        0.343737        0.374972        0.281246
angle_coeff 5 fourier 221.735285        0.343737        0.374972        0.281246
angle_coeff 6 fourier 114.246973        0.343737        0.374972        0.281246
angle_coeff 7 fourier 90.420412        0.343737        0.374972        0.281246
angle_coeff 8 fourier 75.498766        0.343737        0.374972        0.281246
angle_coeff 9 cosine/periodic 88.853997              -1               3

# Positive deformation

variable delta equal ${up}*${len0}
variable delta equal 0.02*${len0}
variable delta equal 0.02*17.1588046538973
variable deltaxy equal ${up}*xy
variable deltaxy equal 0.02*xy
variable deltaxz equal ${up}*xz
variable deltaxz equal 0.02*xz
variable deltayz equal ${up}*yz
variable deltayz equal 0.02*yz
if "${dir} == 1" then    "change_box all x delta 0 ${delta} xy delta ${deltaxy} xz delta ${deltaxz} remap units box"
if "${dir} == 2" then    "change_box all y delta 0 ${delta} yz delta ${deltayz} remap units box"
if "${dir} == 3" then    "change_box all z delta 0 ${delta} remap units box"
change_box all z delta 0 ${delta} remap units box
change_box all z delta 0 0.343176093077946 remap units box
Changing box ...
WARNING: Triclinic box skew is large. LAMMPS will run inefficiently. (src/domain.cpp:221)
  triclinic box = (-0.010837038 0.048308022 0.043684173) to (17.086915 13.932273 17.545665) with tilt (-7.9851547 0.85373798 -2.7256427)
if "${dir} == 4" then    "change_box all yz delta ${delta} remap units box"
if "${dir} == 5" then    "change_box all xz delta ${delta} remap units box"
if "${dir} == 6" then    "change_box all xy delta ${delta} remap units box"

# Relax atoms positions

minimize ${etol} ${ftol} ${maxiter} ${maxeval}
minimize 0 ${ftol} ${maxiter} ${maxeval}
minimize 0 1e-10 ${maxiter} ${maxeval}
minimize 0 1e-10 100000 ${maxeval}
minimize 0 1e-10 100000 100000
Generated 6 of 6 mixed pair_coeff terms from arithmetic mixing rule
Neighbor list info ...
  update: every = 1 steps, delay = 0 steps, check = yes
  max neighbors/atom: 2000, page size: 100000
  master list distance cutoff = 7
  ghost atom cutoff = 7
  binsize = 3.5, bins = 8 5 6
  1 neighbor lists, perpetual/occasional/extra = 1 0 0
  (1) pair lj/cut, perpetual
      attributes: half, newton on
      pair build: half/bin/newton/tri
      stencil: half/bin/3d/tri
      bin: standard
WARNING: Inconsistent image flags
For more information see https://docs.lammps.org/err0027 (src/domain.cpp:1052)
Per MPI rank memory allocation (min/avg/max) = 19.5 | 19.5 | 19.5 Mbytes
   Step          Temp          E_pair         E_mol          TotEng         Press     
    250241   288.23125     -420.25981      243.1479       119.29919     -15563.96     
    250288   288.23125     -444.0471       106.00695     -41.629053     -572.28223    
Loop time of 0.034663 on 1 procs for 47 steps with 346 atoms

100.0% CPU use with 1 MPI tasks x 1 OpenMP threads

Minimization stats:
  Stopping criterion = linesearch alpha is zero
  Energy initial, next-to-last, final = 
     -177.111904864879  -338.040151039177  -338.040151039177
  Force two-norm initial, final = 230.36345 21.672105
  Force max component initial, final = 31.657753 4.9279973
  Final line search alpha, max atom move = 2.5495556e-11 1.2564203e-10
  Iterations, force evaluations = 47 149

MPI task timing breakdown:
Section |  min time  |  avg time  |  max time  |%varavg| %total
---------------------------------------------------------------
Pair    | 0.024255   | 0.024255   | 0.024255   |   0.0 | 69.97
Bond    | 0.006414   | 0.006414   | 0.006414   |   0.0 | 18.50
Neigh   | 0.0024776  | 0.0024776  | 0.0024776  |   0.0 |  7.15
Comm    | 0.0008713  | 0.0008713  | 0.0008713  |   0.0 |  2.51
Output  | 0          | 0          | 0          |   0.0 |  0.00
Modify  | 0          | 0          | 0          |   0.0 |  0.00
Other   |            | 0.0006453  |            |       |  1.86

Nlocal:            346 ave         346 max         346 min
Histogram: 1 0 0 0 0 0 0 0 0 0
Nghost:           2091 ave        2091 max        2091 min
Histogram: 1 0 0 0 0 0 0 0 0 0
Neighs:          19479 ave       19479 max       19479 min
Histogram: 1 0 0 0 0 0 0 0 0 0

Total # of neighbors = 19479
Ave neighs/atom = 56.297688
Ave special neighs/atom = 5.8208092
Neighbor list builds = 1
Dangerous builds = 0

# Obtain new stress tensor

variable tmp equal pe
variable e1 equal ${tmp}
variable e1 equal -338.040151039177
variable tmp equal press
variable p1 equal ${tmp}
variable p1 equal -572.282230987976
variable tmp equal pxx
variable pxx1 equal ${tmp}
variable pxx1 equal 1063.0863436616
variable tmp equal pyy
variable pyy1 equal ${tmp}
variable pyy1 equal 2728.28418236328
variable tmp equal pzz
variable pzz1 equal ${tmp}
variable pzz1 equal -5508.21721898881
variable tmp equal pxy
variable pxy1 equal ${tmp}
variable pxy1 equal -48.9132009590577
variable tmp equal pxz
variable pxz1 equal ${tmp}
variable pxz1 equal 444.087399505742
variable tmp equal pyz
variable pyz1 equal ${tmp}
variable pyz1 equal 599.984677467913

# Compute elastic constant from pressure tensor

variable C1pos equal ${d1}
variable C1pos equal 14.1872415783035
variable C2pos equal ${d2}
variable C2pos equal 2.1038352586886
variable C3pos equal ${d3}
variable C3pos equal 43.9217794189713
variable C4pos equal ${d4}
variable C4pos equal -7.28617739632645
variable C5pos equal ${d5}
variable C5pos equal 5.49546021684584
variable C6pos equal ${d6}
variable C6pos equal -12.0761495954883

# Combine positive and negative

variable C1${dir} equal 0.5*(${C1neg}+${C1pos})
variable C13 equal 0.5*(${C1neg}+${C1pos})
variable C13 equal 0.5*(-3.4974701568143+${C1pos})
variable C13 equal 0.5*(-3.4974701568143+14.1872415783035)
variable C2${dir} equal 0.5*(${C2neg}+${C2pos})
variable C23 equal 0.5*(${C2neg}+${C2pos})
variable C23 equal 0.5*(6.81498640930695+${C2pos})
variable C23 equal 0.5*(6.81498640930695+2.1038352586886)
variable C3${dir} equal 0.5*(${C3neg}+${C3pos})
variable C33 equal 0.5*(${C3neg}+${C3pos})
variable C33 equal 0.5*(-7.53399219634145+${C3pos})
variable C33 equal 0.5*(-7.53399219634145+43.9217794189713)
variable C4${dir} equal 0.5*(${C4neg}+${C4pos})
variable C43 equal 0.5*(${C4neg}+${C4pos})
variable C43 equal 0.5*(8.53023789867441+${C4pos})
variable C43 equal 0.5*(8.53023789867441+-7.28617739632645)
variable C5${dir} equal 0.5*(${C5neg}+${C5pos})
variable C53 equal 0.5*(${C5neg}+${C5pos})
variable C53 equal 0.5*(-3.99530835933477+${C5pos})
variable C53 equal 0.5*(-3.99530835933477+5.49546021684584)
variable C6${dir} equal 0.5*(${C6neg}+${C6pos})
variable C63 equal 0.5*(${C6neg}+${C6pos})
variable C63 equal 0.5*(12.4397109230268+${C6pos})
variable C63 equal 0.5*(12.4397109230268+-12.0761495954883)

# Delete dir to make sure it is not reused

variable dir delete

# uyz Perturbation

variable dir equal 4
include ./input/displace_333-BV-12-vasp.mod
if "${dir} == 1" then    "variable len0 equal ${lx0}"
if "${dir} == 2" then    "variable len0 equal ${ly0}"
if "${dir} == 3" then    "variable len0 equal ${lz0}"
if "${dir} == 4" then    "variable len0 equal ${lz0}"
variable len0 equal ${lz0}
variable len0 equal 17.1588046538973
if "${dir} == 5" then    "variable len0 equal ${lz0}"
if "${dir} == 6" then    "variable len0 equal ${ly0}"

# Reset box and simulation parameters

clear
OMP_NUM_THREADS environment is not set. Defaulting to 1 thread.
  using 1 OpenMP thread(s) per MPI task
box tilt large

The 'box' command has been removed and will be ignored

read_restart restart_333-BV-12-vasp.equil
Reading restart file ...
  restart file = 10 Sep 2025, LAMMPS = 10 Sep 2025
  restoring atom style full from restart
  triclinic box = (-0.010837038 0.048308022 0.043684173) to (17.086915 13.932273 17.202489) with tilt (-7.9851547 0.85373798 -2.7256427)
WARNING: Triclinic box skew is large. LAMMPS will run inefficiently. (src/domain.cpp:221)
  1 by 1 by 1 MPI processor grid
  restoring pair style lj/cut from restart
  restoring bond style harmonic from restart
  restoring angle style hybrid from restart
  restoring dihedral style harmonic from restart
  346 atoms
  351 bonds
  656 angles
  777 dihedrals
Finding 1-2 1-3 1-4 neighbors ...
  special bond factors lj:    0        0        1       
  special bond factors coul:  0        0        1       
     4 = max # of 1-2 neighbors
    10 = max # of 1-3 neighbors
    14 = max # of special neighbors
  special bonds CPU = 0.000 seconds
  read_restart CPU = 0.001 seconds
include ./input/angles_333-BV-12-vasp.mod
angle_style hybrid fourier cosine/periodic
angle_coeff 1 fourier 58.020602        0.343737        0.374972        0.281246
angle_coeff 2 fourier 157.882480        0.343737        0.374972        0.281246
angle_coeff 3 fourier 32.417871        0.343737        0.374972        0.281246
angle_coeff 4 fourier 83.380072        0.343737        0.374972        0.281246
angle_coeff 5 fourier 221.735285        0.343737        0.374972        0.281246
angle_coeff 6 fourier 114.246973        0.343737        0.374972        0.281246
angle_coeff 7 fourier 90.420412        0.343737        0.374972        0.281246
angle_coeff 8 fourier 75.498766        0.343737        0.374972        0.281246
angle_coeff 9 cosine/periodic 88.853997              -1               3

# Negative deformation

variable delta equal -${up}*${len0}
variable delta equal -0.02*${len0}
variable delta equal -0.02*17.1588046538973
variable deltaxy equal -${up}*xy
variable deltaxy equal -0.02*xy
variable deltaxz equal -${up}*xz
variable deltaxz equal -0.02*xz
variable deltayz equal -${up}*yz
variable deltayz equal -0.02*yz
if "${dir} == 1" then    "change_box all x delta 0 ${delta} xy delta ${deltaxy} xz delta ${deltaxz} remap units box"
if "${dir} == 2" then    "change_box all y delta 0 ${delta} yz delta ${deltayz} remap units box"
if "${dir} == 3" then    "change_box all z delta 0 ${delta} remap units box"
if "${dir} == 4" then    "change_box all yz delta ${delta} remap units box"
change_box all yz delta ${delta} remap units box
change_box all yz delta -0.343176093077946 remap units box
Changing box ...
WARNING: Triclinic box skew is large. LAMMPS will run inefficiently. (src/domain.cpp:221)
  triclinic box = (-0.010837038 0.048308022 0.043684173) to (17.086915 13.932273 17.202489) with tilt (-7.9851547 0.85373798 -3.0688188)
if "${dir} == 5" then    "change_box all xz delta ${delta} remap units box"
if "${dir} == 6" then    "change_box all xy delta ${delta} remap units box"

# Relax atoms positions

minimize ${etol} ${ftol} ${maxiter} ${maxeval}
minimize 0 ${ftol} ${maxiter} ${maxeval}
minimize 0 1e-10 ${maxiter} ${maxeval}
minimize 0 1e-10 100000 ${maxeval}
minimize 0 1e-10 100000 100000
Generated 6 of 6 mixed pair_coeff terms from arithmetic mixing rule
Neighbor list info ...
  update: every = 1 steps, delay = 0 steps, check = yes
  max neighbors/atom: 2000, page size: 100000
  master list distance cutoff = 7
  ghost atom cutoff = 7
  binsize = 3.5, bins = 8 5 5
  1 neighbor lists, perpetual/occasional/extra = 1 0 0
  (1) pair lj/cut, perpetual
      attributes: half, newton on
      pair build: half/bin/newton/tri
      stencil: half/bin/3d/tri
      bin: standard
WARNING: Inconsistent image flags
For more information see https://docs.lammps.org/err0027 (src/domain.cpp:1052)
Per MPI rank memory allocation (min/avg/max) = 19.5 | 19.5 | 19.5 Mbytes
   Step          Temp          E_pair         E_mol          TotEng         Press     
    250241   288.23125     -419.86255      226.80786      103.3564       3337.8048    
    250277   288.23125     -450.77444      108.59091     -45.77243       685.23874    
Loop time of 0.0284523 on 1 procs for 36 steps with 346 atoms

100.0% CPU use with 1 MPI tasks x 1 OpenMP threads

Minimization stats:
  Stopping criterion = linesearch alpha is zero
  Energy initial, next-to-last, final = 
     -193.054693211987  -342.183528328834  -342.183528328834
  Force two-norm initial, final = 200.61611 24.612552
  Force max component initial, final = 26.661565 3.3624228
  Final line search alpha, max atom move = 1.2862435e-11 4.3248944e-11
  Iterations, force evaluations = 36 129

MPI task timing breakdown:
Section |  min time  |  avg time  |  max time  |%varavg| %total
---------------------------------------------------------------
Pair    | 0.021622   | 0.021622   | 0.021622   |   0.0 | 75.99
Bond    | 0.005575   | 0.005575   | 0.005575   |   0.0 | 19.59
Neigh   | 0          | 0          | 0          |   0.0 |  0.00
Comm    | 0.00072277 | 0.00072277 | 0.00072277 |   0.0 |  2.54
Output  | 0          | 0          | 0          |   0.0 |  0.00
Modify  | 0          | 0          | 0          |   0.0 |  0.00
Other   |            | 0.0005326  |            |       |  1.87

Nlocal:            346 ave         346 max         346 min
Histogram: 1 0 0 0 0 0 0 0 0 0
Nghost:           2114 ave        2114 max        2114 min
Histogram: 1 0 0 0 0 0 0 0 0 0
Neighs:          19918 ave       19918 max       19918 min
Histogram: 1 0 0 0 0 0 0 0 0 0

Total # of neighbors = 19918
Ave neighs/atom = 57.566474
Ave special neighs/atom = 5.8208092
Neighbor list builds = 0
Dangerous builds = 0

# Obtain new stress tensor

variable tmp equal pxx
variable pxx1 equal ${tmp}
variable pxx1 equal 1384.36418712145
variable tmp equal pyy
variable pyy1 equal ${tmp}
variable pyy1 equal 3064.95857614447
variable tmp equal pzz
variable pzz1 equal ${tmp}
variable pzz1 equal -2393.60655573399
variable tmp equal pxy
variable pxy1 equal ${tmp}
variable pxy1 equal -197.19499052291
variable tmp equal pxz
variable pxz1 equal ${tmp}
variable pxz1 equal 355.881020885419
variable tmp equal pyz
variable pyz1 equal ${tmp}
variable pyz1 equal 1360.18303238801

# Compute elastic constant from pressure tensor

variable C1neg equal ${d1}
variable C1neg equal -12.5808523610043
variable C2neg equal ${d2}
variable C2neg equal -0.420463289782649
variable C3neg equal ${d3}
variable C3neg equal -28.3487261026972
variable C4neg equal ${d4}
variable C4neg equal 11.0871691709269
variable C5neg equal ${d5}
variable C5neg equal -5.93649210994746
variable C6neg equal ${d6}
variable C6neg equal 11.3347406476691

# Reset box and simulation parameters

clear
OMP_NUM_THREADS environment is not set. Defaulting to 1 thread.
  using 1 OpenMP thread(s) per MPI task
box tilt large

The 'box' command has been removed and will be ignored

read_restart restart_333-BV-12-vasp.equil
Reading restart file ...
  restart file = 10 Sep 2025, LAMMPS = 10 Sep 2025
  restoring atom style full from restart
  triclinic box = (-0.010837038 0.048308022 0.043684173) to (17.086915 13.932273 17.202489) with tilt (-7.9851547 0.85373798 -2.7256427)
WARNING: Triclinic box skew is large. LAMMPS will run inefficiently. (src/domain.cpp:221)
  1 by 1 by 1 MPI processor grid
  restoring pair style lj/cut from restart
  restoring bond style harmonic from restart
  restoring angle style hybrid from restart
  restoring dihedral style harmonic from restart
  346 atoms
  351 bonds
  656 angles
  777 dihedrals
Finding 1-2 1-3 1-4 neighbors ...
  special bond factors lj:    0        0        1       
  special bond factors coul:  0        0        1       
     4 = max # of 1-2 neighbors
    10 = max # of 1-3 neighbors
    14 = max # of special neighbors
  special bonds CPU = 0.000 seconds
  read_restart CPU = 0.001 seconds
include ./input/angles_333-BV-12-vasp.mod
angle_style hybrid fourier cosine/periodic
angle_coeff 1 fourier 58.020602        0.343737        0.374972        0.281246
angle_coeff 2 fourier 157.882480        0.343737        0.374972        0.281246
angle_coeff 3 fourier 32.417871        0.343737        0.374972        0.281246
angle_coeff 4 fourier 83.380072        0.343737        0.374972        0.281246
angle_coeff 5 fourier 221.735285        0.343737        0.374972        0.281246
angle_coeff 6 fourier 114.246973        0.343737        0.374972        0.281246
angle_coeff 7 fourier 90.420412        0.343737        0.374972        0.281246
angle_coeff 8 fourier 75.498766        0.343737        0.374972        0.281246
angle_coeff 9 cosine/periodic 88.853997              -1               3

# Positive deformation

variable delta equal ${up}*${len0}
variable delta equal 0.02*${len0}
variable delta equal 0.02*17.1588046538973
variable deltaxy equal ${up}*xy
variable deltaxy equal 0.02*xy
variable deltaxz equal ${up}*xz
variable deltaxz equal 0.02*xz
variable deltayz equal ${up}*yz
variable deltayz equal 0.02*yz
if "${dir} == 1" then    "change_box all x delta 0 ${delta} xy delta ${deltaxy} xz delta ${deltaxz} remap units box"
if "${dir} == 2" then    "change_box all y delta 0 ${delta} yz delta ${deltayz} remap units box"
if "${dir} == 3" then    "change_box all z delta 0 ${delta} remap units box"
if "${dir} == 4" then    "change_box all yz delta ${delta} remap units box"
change_box all yz delta ${delta} remap units box
change_box all yz delta 0.343176093077946 remap units box
Changing box ...
WARNING: Triclinic box skew is large. LAMMPS will run inefficiently. (src/domain.cpp:221)
  triclinic box = (-0.010837038 0.048308022 0.043684173) to (17.086915 13.932273 17.202489) with tilt (-7.9851547 0.85373798 -2.3824666)
if "${dir} == 5" then    "change_box all xz delta ${delta} remap units box"
if "${dir} == 6" then    "change_box all xy delta ${delta} remap units box"

# Relax atoms positions

minimize ${etol} ${ftol} ${maxiter} ${maxeval}
minimize 0 ${ftol} ${maxiter} ${maxeval}
minimize 0 1e-10 ${maxiter} ${maxeval}
minimize 0 1e-10 100000 ${maxeval}
minimize 0 1e-10 100000 100000
Generated 6 of 6 mixed pair_coeff terms from arithmetic mixing rule
Neighbor list info ...
  update: every = 1 steps, delay = 0 steps, check = yes
  max neighbors/atom: 2000, page size: 100000
  master list distance cutoff = 7
  ghost atom cutoff = 7
  binsize = 3.5, bins = 8 5 5
  1 neighbor lists, perpetual/occasional/extra = 1 0 0
  (1) pair lj/cut, perpetual
      attributes: half, newton on
      pair build: half/bin/newton/tri
      stencil: half/bin/3d/tri
      bin: standard
WARNING: Inconsistent image flags
For more information see https://docs.lammps.org/err0027 (src/domain.cpp:1052)
Per MPI rank memory allocation (min/avg/max) = 19.5 | 19.5 | 19.5 Mbytes
   Step          Temp          E_pair         E_mol          TotEng         Press     
    250241   288.23125     -420.13745      229.6717       105.94535      3186.4403    
    250313   288.23125     -451.50619      98.748493     -56.346595      1285.7531    
Loop time of 0.0462372 on 1 procs for 72 steps with 346 atoms

100.0% CPU use with 1 MPI tasks x 1 OpenMP threads

Minimization stats:
  Stopping criterion = linesearch alpha is zero
  Energy initial, next-to-last, final = 
     -190.465750818833  -352.757693280889  -352.757693280889
  Force two-norm initial, final = 203.46288 11.664072
  Force max component initial, final = 23.363108 1.8323035
  Final line search alpha, max atom move = 7.648089e-11 1.401362e-10
  Iterations, force evaluations = 72 197

MPI task timing breakdown:
Section |  min time  |  avg time  |  max time  |%varavg| %total
---------------------------------------------------------------
Pair    | 0.032964   | 0.032964   | 0.032964   |   0.0 | 71.29
Bond    | 0.0084239  | 0.0084239  | 0.0084239  |   0.0 | 18.22
Neigh   | 0.0026929  | 0.0026929  | 0.0026929  |   0.0 |  5.82
Comm    | 0.0012176  | 0.0012176  | 0.0012176  |   0.0 |  2.63
Output  | 0          | 0          | 0          |   0.0 |  0.00
Modify  | 0          | 0          | 0          |   0.0 |  0.00
Other   |            | 0.0009383  |            |       |  2.03

Nlocal:            346 ave         346 max         346 min
Histogram: 1 0 0 0 0 0 0 0 0 0
Nghost:           2107 ave        2107 max        2107 min
Histogram: 1 0 0 0 0 0 0 0 0 0
Neighs:          19876 ave       19876 max       19876 min
Histogram: 1 0 0 0 0 0 0 0 0 0

Total # of neighbors = 19876
Ave neighs/atom = 57.445087
Ave special neighs/atom = 5.8208092
Neighbor list builds = 1
Dangerous builds = 0

# Obtain new stress tensor

variable tmp equal pe
variable e1 equal ${tmp}
variable e1 equal -352.757693280889
variable tmp equal press
variable p1 equal ${tmp}
variable p1 equal 1285.75305744783
variable tmp equal pxx
variable pxx1 equal ${tmp}
variable pxx1 equal 2558.1743703845
variable tmp equal pyy
variable pyy1 equal ${tmp}
variable pyy1 equal 2315.04694025623
variable tmp equal pzz
variable pzz1 equal ${tmp}
variable pzz1 equal -1015.96213829725
variable tmp equal pxy
variable pxy1 equal ${tmp}
variable pxy1 equal -252.735904146844
variable tmp equal pxz
variable pxz1 equal ${tmp}
variable pxz1 equal 1044.94025670912
variable tmp equal pyz
variable pyz1 equal ${tmp}
variable pyz1 equal 50.8192315863638

# Compute elastic constant from pressure tensor

variable C1pos equal ${d1}
variable C1pos equal 6.711801444689
variable C2pos equal ${d2}
variable C2pos equal 4.17002146922385
variable C3pos equal ${d3}
variable C3pos equal 21.4605040155135
variable C4pos equal ${d4}
variable C4pos equal -4.54035016691871
variable C5pos equal ${d5}
variable C5pos equal 2.49119593082895
variable C6pos equal ${d6}
variable C6pos equal -11.0570360795494

# Combine positive and negative

variable C1${dir} equal 0.5*(${C1neg}+${C1pos})
variable C14 equal 0.5*(${C1neg}+${C1pos})
variable C14 equal 0.5*(-12.5808523610043+${C1pos})
variable C14 equal 0.5*(-12.5808523610043+6.711801444689)
variable C2${dir} equal 0.5*(${C2neg}+${C2pos})
variable C24 equal 0.5*(${C2neg}+${C2pos})
variable C24 equal 0.5*(-0.420463289782649+${C2pos})
variable C24 equal 0.5*(-0.420463289782649+4.17002146922385)
variable C3${dir} equal 0.5*(${C3neg}+${C3pos})
variable C34 equal 0.5*(${C3neg}+${C3pos})
variable C34 equal 0.5*(-28.3487261026972+${C3pos})
variable C34 equal 0.5*(-28.3487261026972+21.4605040155135)
variable C4${dir} equal 0.5*(${C4neg}+${C4pos})
variable C44 equal 0.5*(${C4neg}+${C4pos})
variable C44 equal 0.5*(11.0871691709269+${C4pos})
variable C44 equal 0.5*(11.0871691709269+-4.54035016691871)
variable C5${dir} equal 0.5*(${C5neg}+${C5pos})
variable C54 equal 0.5*(${C5neg}+${C5pos})
variable C54 equal 0.5*(-5.93649210994746+${C5pos})
variable C54 equal 0.5*(-5.93649210994746+2.49119593082895)
variable C6${dir} equal 0.5*(${C6neg}+${C6pos})
variable C64 equal 0.5*(${C6neg}+${C6pos})
variable C64 equal 0.5*(11.3347406476691+${C6pos})
variable C64 equal 0.5*(11.3347406476691+-11.0570360795494)

# Delete dir to make sure it is not reused

variable dir delete

# uxz Perturbation

variable dir equal 5
include ./input/displace_333-BV-12-vasp.mod
if "${dir} == 1" then    "variable len0 equal ${lx0}"
if "${dir} == 2" then    "variable len0 equal ${ly0}"
if "${dir} == 3" then    "variable len0 equal ${lz0}"
if "${dir} == 4" then    "variable len0 equal ${lz0}"
if "${dir} == 5" then    "variable len0 equal ${lz0}"
variable len0 equal ${lz0}
variable len0 equal 17.1588046538973
if "${dir} == 6" then    "variable len0 equal ${ly0}"

# Reset box and simulation parameters

clear
OMP_NUM_THREADS environment is not set. Defaulting to 1 thread.
  using 1 OpenMP thread(s) per MPI task
box tilt large

The 'box' command has been removed and will be ignored

read_restart restart_333-BV-12-vasp.equil
Reading restart file ...
  restart file = 10 Sep 2025, LAMMPS = 10 Sep 2025
  restoring atom style full from restart
  triclinic box = (-0.010837038 0.048308022 0.043684173) to (17.086915 13.932273 17.202489) with tilt (-7.9851547 0.85373798 -2.7256427)
WARNING: Triclinic box skew is large. LAMMPS will run inefficiently. (src/domain.cpp:221)
  1 by 1 by 1 MPI processor grid
  restoring pair style lj/cut from restart
  restoring bond style harmonic from restart
  restoring angle style hybrid from restart
  restoring dihedral style harmonic from restart
  346 atoms
  351 bonds
  656 angles
  777 dihedrals
Finding 1-2 1-3 1-4 neighbors ...
  special bond factors lj:    0        0        1       
  special bond factors coul:  0        0        1       
     4 = max # of 1-2 neighbors
    10 = max # of 1-3 neighbors
    14 = max # of special neighbors
  special bonds CPU = 0.000 seconds
  read_restart CPU = 0.001 seconds
include ./input/angles_333-BV-12-vasp.mod
angle_style hybrid fourier cosine/periodic
angle_coeff 1 fourier 58.020602        0.343737        0.374972        0.281246
angle_coeff 2 fourier 157.882480        0.343737        0.374972        0.281246
angle_coeff 3 fourier 32.417871        0.343737        0.374972        0.281246
angle_coeff 4 fourier 83.380072        0.343737        0.374972        0.281246
angle_coeff 5 fourier 221.735285        0.343737        0.374972        0.281246
angle_coeff 6 fourier 114.246973        0.343737        0.374972        0.281246
angle_coeff 7 fourier 90.420412        0.343737        0.374972        0.281246
angle_coeff 8 fourier 75.498766        0.343737        0.374972        0.281246
angle_coeff 9 cosine/periodic 88.853997              -1               3

# Negative deformation

variable delta equal -${up}*${len0}
variable delta equal -0.02*${len0}
variable delta equal -0.02*17.1588046538973
variable deltaxy equal -${up}*xy
variable deltaxy equal -0.02*xy
variable deltaxz equal -${up}*xz
variable deltaxz equal -0.02*xz
variable deltayz equal -${up}*yz
variable deltayz equal -0.02*yz
if "${dir} == 1" then    "change_box all x delta 0 ${delta} xy delta ${deltaxy} xz delta ${deltaxz} remap units box"
if "${dir} == 2" then    "change_box all y delta 0 ${delta} yz delta ${deltayz} remap units box"
if "${dir} == 3" then    "change_box all z delta 0 ${delta} remap units box"
if "${dir} == 4" then    "change_box all yz delta ${delta} remap units box"
if "${dir} == 5" then    "change_box all xz delta ${delta} remap units box"
change_box all xz delta ${delta} remap units box
change_box all xz delta -0.343176093077946 remap units box
Changing box ...
WARNING: Triclinic box skew is large. LAMMPS will run inefficiently. (src/domain.cpp:221)
  triclinic box = (-0.010837038 0.048308022 0.043684173) to (17.086915 13.932273 17.202489) with tilt (-7.9851547 0.51056189 -2.7256427)
if "${dir} == 6" then    "change_box all xy delta ${delta} remap units box"

# Relax atoms positions

minimize ${etol} ${ftol} ${maxiter} ${maxeval}
minimize 0 ${ftol} ${maxiter} ${maxeval}
minimize 0 1e-10 ${maxiter} ${maxeval}
minimize 0 1e-10 100000 ${maxeval}
minimize 0 1e-10 100000 100000
Generated 6 of 6 mixed pair_coeff terms from arithmetic mixing rule
Neighbor list info ...
  update: every = 1 steps, delay = 0 steps, check = yes
  max neighbors/atom: 2000, page size: 100000
  master list distance cutoff = 7
  ghost atom cutoff = 7
  binsize = 3.5, bins = 8 5 5
  1 neighbor lists, perpetual/occasional/extra = 1 0 0
  (1) pair lj/cut, perpetual
      attributes: half, newton on
      pair build: half/bin/newton/tri
      stencil: half/bin/3d/tri
      bin: standard
WARNING: Inconsistent image flags
For more information see https://docs.lammps.org/err0027 (src/domain.cpp:1052)
Per MPI rank memory allocation (min/avg/max) = 19.5 | 19.5 | 19.5 Mbytes
   Step          Temp          E_pair         E_mol          TotEng         Press     
    250241   288.23125     -418.90121      228.5996       106.1095       3307.1439    
    250280   288.23125     -450.57407      108.41071     -45.75226       926.40487    
Loop time of 0.0293894 on 1 procs for 39 steps with 346 atoms

100.0% CPU use with 1 MPI tasks x 1 OpenMP threads

Minimization stats:
  Stopping criterion = linesearch alpha is zero
  Energy initial, next-to-last, final = 
     -190.301602722246  -342.163358673711  -342.163358673711
  Force two-norm initial, final = 199.87552 24.027621
  Force max component initial, final = 22.12374 6.0554054
  Final line search alpha, max atom move = 1.2569753e-11 7.6114952e-11
  Iterations, force evaluations = 39 135

MPI task timing breakdown:
Section |  min time  |  avg time  |  max time  |%varavg| %total
---------------------------------------------------------------
Pair    | 0.022314   | 0.022314   | 0.022314   |   0.0 | 75.93
Bond    | 0.0057574  | 0.0057574  | 0.0057574  |   0.0 | 19.59
Neigh   | 0          | 0          | 0          |   0.0 |  0.00
Comm    | 0.00075385 | 0.00075385 | 0.00075385 |   0.0 |  2.57
Output  | 0          | 0          | 0          |   0.0 |  0.00
Modify  | 0          | 0          | 0          |   0.0 |  0.00
Other   |            | 0.0005638  |            |       |  1.92

Nlocal:            346 ave         346 max         346 min
Histogram: 1 0 0 0 0 0 0 0 0 0
Nghost:           2114 ave        2114 max        2114 min
Histogram: 1 0 0 0 0 0 0 0 0 0
Neighs:          19918 ave       19918 max       19918 min
Histogram: 1 0 0 0 0 0 0 0 0 0

Total # of neighbors = 19918
Ave neighs/atom = 57.566474
Ave special neighs/atom = 5.8208092
Neighbor list builds = 0
Dangerous builds = 0

# Obtain new stress tensor

variable tmp equal pxx
variable pxx1 equal ${tmp}
variable pxx1 equal 1634.17419193453
variable tmp equal pyy
variable pyy1 equal ${tmp}
variable pyy1 equal 3483.58816602692
variable tmp equal pzz
variable pzz1 equal ${tmp}
variable pzz1 equal -2338.54774652424
variable tmp equal pxy
variable pxy1 equal ${tmp}
variable pxy1 equal 82.0959478414838
variable tmp equal pxz
variable pxz1 equal ${tmp}
variable pxz1 equal 1529.64234175117
variable tmp equal pyz
variable pyz1 equal ${tmp}
variable pyz1 equal 180.249428700738

# Compute elastic constant from pressure tensor

variable C1neg equal ${d1}
variable C1neg equal -11.3318023369388
variable C2neg equal ${d2}
variable C2neg equal 1.6726846596296
variable C3neg equal ${d3}
variable C3neg equal -28.0734320566485
variable C4neg equal ${d4}
variable C4neg equal 5.18750115249058
variable C5neg equal ${d5}
variable C5neg equal -0.0676855056186992
variable C6neg equal ${d6}
variable C6neg equal 12.731195339491

# Reset box and simulation parameters

clear
OMP_NUM_THREADS environment is not set. Defaulting to 1 thread.
  using 1 OpenMP thread(s) per MPI task
box tilt large

The 'box' command has been removed and will be ignored

read_restart restart_333-BV-12-vasp.equil
Reading restart file ...
  restart file = 10 Sep 2025, LAMMPS = 10 Sep 2025
  restoring atom style full from restart
  triclinic box = (-0.010837038 0.048308022 0.043684173) to (17.086915 13.932273 17.202489) with tilt (-7.9851547 0.85373798 -2.7256427)
WARNING: Triclinic box skew is large. LAMMPS will run inefficiently. (src/domain.cpp:221)
  1 by 1 by 1 MPI processor grid
  restoring pair style lj/cut from restart
  restoring bond style harmonic from restart
  restoring angle style hybrid from restart
  restoring dihedral style harmonic from restart
  346 atoms
  351 bonds
  656 angles
  777 dihedrals
Finding 1-2 1-3 1-4 neighbors ...
  special bond factors lj:    0        0        1       
  special bond factors coul:  0        0        1       
     4 = max # of 1-2 neighbors
    10 = max # of 1-3 neighbors
    14 = max # of special neighbors
  special bonds CPU = 0.000 seconds
  read_restart CPU = 0.001 seconds
include ./input/angles_333-BV-12-vasp.mod
angle_style hybrid fourier cosine/periodic
angle_coeff 1 fourier 58.020602        0.343737        0.374972        0.281246
angle_coeff 2 fourier 157.882480        0.343737        0.374972        0.281246
angle_coeff 3 fourier 32.417871        0.343737        0.374972        0.281246
angle_coeff 4 fourier 83.380072        0.343737        0.374972        0.281246
angle_coeff 5 fourier 221.735285        0.343737        0.374972        0.281246
angle_coeff 6 fourier 114.246973        0.343737        0.374972        0.281246
angle_coeff 7 fourier 90.420412        0.343737        0.374972        0.281246
angle_coeff 8 fourier 75.498766        0.343737        0.374972        0.281246
angle_coeff 9 cosine/periodic 88.853997              -1               3

# Positive deformation

variable delta equal ${up}*${len0}
variable delta equal 0.02*${len0}
variable delta equal 0.02*17.1588046538973
variable deltaxy equal ${up}*xy
variable deltaxy equal 0.02*xy
variable deltaxz equal ${up}*xz
variable deltaxz equal 0.02*xz
variable deltayz equal ${up}*yz
variable deltayz equal 0.02*yz
if "${dir} == 1" then    "change_box all x delta 0 ${delta} xy delta ${deltaxy} xz delta ${deltaxz} remap units box"
if "${dir} == 2" then    "change_box all y delta 0 ${delta} yz delta ${deltayz} remap units box"
if "${dir} == 3" then    "change_box all z delta 0 ${delta} remap units box"
if "${dir} == 4" then    "change_box all yz delta ${delta} remap units box"
if "${dir} == 5" then    "change_box all xz delta ${delta} remap units box"
change_box all xz delta ${delta} remap units box
change_box all xz delta 0.343176093077946 remap units box
Changing box ...
WARNING: Triclinic box skew is large. LAMMPS will run inefficiently. (src/domain.cpp:221)
  triclinic box = (-0.010837038 0.048308022 0.043684173) to (17.086915 13.932273 17.202489) with tilt (-7.9851547 1.1969141 -2.7256427)
if "${dir} == 6" then    "change_box all xy delta ${delta} remap units box"

# Relax atoms positions

minimize ${etol} ${ftol} ${maxiter} ${maxeval}
minimize 0 ${ftol} ${maxiter} ${maxeval}
minimize 0 1e-10 ${maxiter} ${maxeval}
minimize 0 1e-10 100000 ${maxeval}
minimize 0 1e-10 100000 100000
Generated 6 of 6 mixed pair_coeff terms from arithmetic mixing rule
Neighbor list info ...
  update: every = 1 steps, delay = 0 steps, check = yes
  max neighbors/atom: 2000, page size: 100000
  master list distance cutoff = 7
  ghost atom cutoff = 7
  binsize = 3.5, bins = 8 5 5
  1 neighbor lists, perpetual/occasional/extra = 1 0 0
  (1) pair lj/cut, perpetual
      attributes: half, newton on
      pair build: half/bin/newton/tri
      stencil: half/bin/3d/tri
      bin: standard
WARNING: Inconsistent image flags
For more information see https://docs.lammps.org/err0027 (src/domain.cpp:1052)
Per MPI rank memory allocation (min/avg/max) = 19.5 | 19.5 | 19.5 Mbytes
   Step          Temp          E_pair         E_mol          TotEng         Press     
    250241   288.23125     -420.70335      227.35892      103.06666      3236.274     
    250292   288.23125     -451.1585       103.36228     -51.385121      1010.8272    
Loop time of 0.0404247 on 1 procs for 51 steps with 346 atoms

100.0% CPU use with 1 MPI tasks x 1 OpenMP threads

Minimization stats:
  Stopping criterion = linesearch alpha is zero
  Energy initial, next-to-last, final = 
     -193.344436869396  -347.796218779555  -347.796218779555
  Force two-norm initial, final = 200.57644 19.263761
  Force max component initial, final = 27.996241 4.3843779
  Final line search alpha, max atom move = 2.5368541e-11 1.1122527e-10
  Iterations, force evaluations = 51 159

MPI task timing breakdown:
Section |  min time  |  avg time  |  max time  |%varavg| %total
---------------------------------------------------------------
Pair    | 0.028584   | 0.028584   | 0.028584   |   0.0 | 70.71
Bond    | 0.0073049  | 0.0073049  | 0.0073049  |   0.0 | 18.07
Neigh   | 0.0027233  | 0.0027233  | 0.0027233  |   0.0 |  6.74
Comm    | 0.00098538 | 0.00098538 | 0.00098538 |   0.0 |  2.44
Output  | 0          | 0          | 0          |   0.0 |  0.00
Modify  | 0          | 0          | 0          |   0.0 |  0.00
Other   |            | 0.0008269  |            |       |  2.05

Nlocal:            346 ave         346 max         346 min
Histogram: 1 0 0 0 0 0 0 0 0 0
Nghost:           2107 ave        2107 max        2107 min
Histogram: 1 0 0 0 0 0 0 0 0 0
Neighs:          19869 ave       19869 max       19869 min
Histogram: 1 0 0 0 0 0 0 0 0 0

Total # of neighbors = 19869
Ave neighs/atom = 57.424855
Ave special neighs/atom = 5.8208092
Neighbor list builds = 1
Dangerous builds = 0

# Obtain new stress tensor

variable tmp equal pe
variable e1 equal ${tmp}
variable e1 equal -347.796218779555
variable tmp equal press
variable p1 equal ${tmp}
variable p1 equal 1010.82722661026
variable tmp equal pxx
variable pxx1 equal ${tmp}
variable pxx1 equal 2211.46609374378
variable tmp equal pyy
variable pyy1 equal ${tmp}
variable pyy1 equal 3313.83932307479
variable tmp equal pzz
variable pzz1 equal ${tmp}
variable pzz1 equal -2492.82373698781
variable tmp equal pxy
variable pxy1 equal ${tmp}
variable pxy1 equal -262.018383833389
variable tmp equal pxz
variable pxz1 equal ${tmp}
variable pxz1 equal -417.330178802511
variable tmp equal pyz
variable pyz1 equal ${tmp}
variable pyz1 equal 606.943393508186

# Compute elastic constant from pressure tensor

variable C1pos equal ${d1}
variable C1pos equal 8.4453428278926
variable C2pos equal ${d2}
variable C2pos equal -0.823940444868951
variable C3pos equal ${d3}
variable C3pos equal 28.8448120089663
variable C4pos equal ${d4}
variable C4pos equal -7.32097097652782
variable C5pos equal ${d5}
variable C5pos equal 9.80254810838711
variable C6pos equal ${d6}
variable C6pos equal -11.0106236811167

# Combine positive and negative

variable C1${dir} equal 0.5*(${C1neg}+${C1pos})
variable C15 equal 0.5*(${C1neg}+${C1pos})
variable C15 equal 0.5*(-11.3318023369388+${C1pos})
variable C15 equal 0.5*(-11.3318023369388+8.4453428278926)
variable C2${dir} equal 0.5*(${C2neg}+${C2pos})
variable C25 equal 0.5*(${C2neg}+${C2pos})
variable C25 equal 0.5*(1.6726846596296+${C2pos})
variable C25 equal 0.5*(1.6726846596296+-0.823940444868951)
variable C3${dir} equal 0.5*(${C3neg}+${C3pos})
variable C35 equal 0.5*(${C3neg}+${C3pos})
variable C35 equal 0.5*(-28.0734320566485+${C3pos})
variable C35 equal 0.5*(-28.0734320566485+28.8448120089663)
variable C4${dir} equal 0.5*(${C4neg}+${C4pos})
variable C45 equal 0.5*(${C4neg}+${C4pos})
variable C45 equal 0.5*(5.18750115249058+${C4pos})
variable C45 equal 0.5*(5.18750115249058+-7.32097097652782)
variable C5${dir} equal 0.5*(${C5neg}+${C5pos})
variable C55 equal 0.5*(${C5neg}+${C5pos})
variable C55 equal 0.5*(-0.0676855056186992+${C5pos})
variable C55 equal 0.5*(-0.0676855056186992+9.80254810838711)
variable C6${dir} equal 0.5*(${C6neg}+${C6pos})
variable C65 equal 0.5*(${C6neg}+${C6pos})
variable C65 equal 0.5*(12.731195339491+${C6pos})
variable C65 equal 0.5*(12.731195339491+-11.0106236811167)

# Delete dir to make sure it is not reused

variable dir delete

# uxy Perturbation

variable dir equal 6
include ./input/displace_333-BV-12-vasp.mod
if "${dir} == 1" then    "variable len0 equal ${lx0}"
if "${dir} == 2" then    "variable len0 equal ${ly0}"
if "${dir} == 3" then    "variable len0 equal ${lz0}"
if "${dir} == 4" then    "variable len0 equal ${lz0}"
if "${dir} == 5" then    "variable len0 equal ${lz0}"
if "${dir} == 6" then    "variable len0 equal ${ly0}"
variable len0 equal ${ly0}
variable len0 equal 13.8839649553015

# Reset box and simulation parameters

clear
OMP_NUM_THREADS environment is not set. Defaulting to 1 thread.
  using 1 OpenMP thread(s) per MPI task
box tilt large

The 'box' command has been removed and will be ignored

read_restart restart_333-BV-12-vasp.equil
Reading restart file ...
  restart file = 10 Sep 2025, LAMMPS = 10 Sep 2025
  restoring atom style full from restart
  triclinic box = (-0.010837038 0.048308022 0.043684173) to (17.086915 13.932273 17.202489) with tilt (-7.9851547 0.85373798 -2.7256427)
WARNING: Triclinic box skew is large. LAMMPS will run inefficiently. (src/domain.cpp:221)
  1 by 1 by 1 MPI processor grid
  restoring pair style lj/cut from restart
  restoring bond style harmonic from restart
  restoring angle style hybrid from restart
  restoring dihedral style harmonic from restart
  346 atoms
  351 bonds
  656 angles
  777 dihedrals
Finding 1-2 1-3 1-4 neighbors ...
  special bond factors lj:    0        0        1       
  special bond factors coul:  0        0        1       
     4 = max # of 1-2 neighbors
    10 = max # of 1-3 neighbors
    14 = max # of special neighbors
  special bonds CPU = 0.000 seconds
  read_restart CPU = 0.001 seconds
include ./input/angles_333-BV-12-vasp.mod
angle_style hybrid fourier cosine/periodic
angle_coeff 1 fourier 58.020602        0.343737        0.374972        0.281246
angle_coeff 2 fourier 157.882480        0.343737        0.374972        0.281246
angle_coeff 3 fourier 32.417871        0.343737        0.374972        0.281246
angle_coeff 4 fourier 83.380072        0.343737        0.374972        0.281246
angle_coeff 5 fourier 221.735285        0.343737        0.374972        0.281246
angle_coeff 6 fourier 114.246973        0.343737        0.374972        0.281246
angle_coeff 7 fourier 90.420412        0.343737        0.374972        0.281246
angle_coeff 8 fourier 75.498766        0.343737        0.374972        0.281246
angle_coeff 9 cosine/periodic 88.853997              -1               3

# Negative deformation

variable delta equal -${up}*${len0}
variable delta equal -0.02*${len0}
variable delta equal -0.02*13.8839649553015
variable deltaxy equal -${up}*xy
variable deltaxy equal -0.02*xy
variable deltaxz equal -${up}*xz
variable deltaxz equal -0.02*xz
variable deltayz equal -${up}*yz
variable deltayz equal -0.02*yz
if "${dir} == 1" then    "change_box all x delta 0 ${delta} xy delta ${deltaxy} xz delta ${deltaxz} remap units box"
if "${dir} == 2" then    "change_box all y delta 0 ${delta} yz delta ${deltayz} remap units box"
if "${dir} == 3" then    "change_box all z delta 0 ${delta} remap units box"
if "${dir} == 4" then    "change_box all yz delta ${delta} remap units box"
if "${dir} == 5" then    "change_box all xz delta ${delta} remap units box"
if "${dir} == 6" then    "change_box all xy delta ${delta} remap units box"
change_box all xy delta ${delta} remap units box
change_box all xy delta -0.27767929910603 remap units box
Changing box ...
WARNING: Triclinic box skew is large. LAMMPS will run inefficiently. (src/domain.cpp:221)
  triclinic box = (-0.010837038 0.048308022 0.043684173) to (17.086915 13.932273 17.202489) with tilt (-8.262834 0.85373798 -2.7256427)

# Relax atoms positions

minimize ${etol} ${ftol} ${maxiter} ${maxeval}
minimize 0 ${ftol} ${maxiter} ${maxeval}
minimize 0 1e-10 ${maxiter} ${maxeval}
minimize 0 1e-10 100000 ${maxeval}
minimize 0 1e-10 100000 100000
Generated 6 of 6 mixed pair_coeff terms from arithmetic mixing rule
Neighbor list info ...
  update: every = 1 steps, delay = 0 steps, check = yes
  max neighbors/atom: 2000, page size: 100000
  master list distance cutoff = 7
  ghost atom cutoff = 7
  binsize = 3.5, bins = 8 5 5
  1 neighbor lists, perpetual/occasional/extra = 1 0 0
  (1) pair lj/cut, perpetual
      attributes: half, newton on
      pair build: half/bin/newton/tri
      stencil: half/bin/3d/tri
      bin: standard
WARNING: Inconsistent image flags
For more information see https://docs.lammps.org/err0027 (src/domain.cpp:1052)
Per MPI rank memory allocation (min/avg/max) = 19.5 | 19.5 | 19.5 Mbytes
   Step          Temp          E_pair         E_mol          TotEng         Press     
    250241   288.23125     -420.00295      225.35454      101.76269      3205.6409    
    250282   288.23125     -450.31901      107.18731     -46.720602      446.21616    
Loop time of 0.025714 on 1 procs for 41 steps with 346 atoms

100.0% CPU use with 1 MPI tasks x 1 OpenMP threads

Minimization stats:
  Stopping criterion = linesearch alpha is zero
  Energy initial, next-to-last, final = 
     -194.648404070818  -343.131700075712  -343.131700075712
  Force two-norm initial, final = 200.00303 22.586442
  Force max component initial, final = 26.890962 3.3508666
  Final line search alpha, max atom move = 1.3834472e-11 4.6357471e-11
  Iterations, force evaluations = 41 139

MPI task timing breakdown:
Section |  min time  |  avg time  |  max time  |%varavg| %total
---------------------------------------------------------------
Pair    | 0.019576   | 0.019576   | 0.019576   |   0.0 | 76.13
Bond    | 0.0049983  | 0.0049983  | 0.0049983  |   0.0 | 19.44
Neigh   | 0          | 0          | 0          |   0.0 |  0.00
Comm    | 0.00063847 | 0.00063847 | 0.00063847 |   0.0 |  2.48
Output  | 0          | 0          | 0          |   0.0 |  0.00
Modify  | 0          | 0          | 0          |   0.0 |  0.00
Other   |            | 0.0005015  |            |       |  1.95

Nlocal:            346 ave         346 max         346 min
Histogram: 1 0 0 0 0 0 0 0 0 0
Nghost:           2130 ave        2130 max        2130 min
Histogram: 1 0 0 0 0 0 0 0 0 0
Neighs:          19941 ave       19941 max       19941 min
Histogram: 1 0 0 0 0 0 0 0 0 0

Total # of neighbors = 19941
Ave neighs/atom = 57.632948
Ave special neighs/atom = 5.8208092
Neighbor list builds = 0
Dangerous builds = 0

# Obtain new stress tensor

variable tmp equal pxx
variable pxx1 equal ${tmp}
variable pxx1 equal 1144.88718277798
variable tmp equal pyy
variable pyy1 equal ${tmp}
variable pyy1 equal 2793.58495584306
variable tmp equal pzz
variable pzz1 equal ${tmp}
variable pzz1 equal -2599.82366140107
variable tmp equal pxy
variable pxy1 equal ${tmp}
variable pxy1 equal 1173.81816114261
variable tmp equal pxz
variable pxz1 equal ${tmp}
variable pxz1 equal 1031.44342275239
variable tmp equal pyz
variable pyz1 equal ${tmp}
variable pyz1 equal 398.458118521171

# Compute elastic constant from pressure tensor

variable C1neg equal ${d1}
variable C1neg equal -13.7782373827216
variable C2neg equal ${d2}
variable C2neg equal -1.7773313912897
variable C3neg equal ${d3}
variable C3neg equal -29.3798116310326
variable C4neg equal ${d4}
variable C4neg equal 6.27854460159274
variable C5neg equal ${d5}
variable C5neg equal -2.5586801006126
variable C6neg equal ${d6}
variable C6neg equal 18.1898064059967

# Reset box and simulation parameters

clear
OMP_NUM_THREADS environment is not set. Defaulting to 1 thread.
  using 1 OpenMP thread(s) per MPI task
box tilt large

The 'box' command has been removed and will be ignored

read_restart restart_333-BV-12-vasp.equil
Reading restart file ...
  restart file = 10 Sep 2025, LAMMPS = 10 Sep 2025
  restoring atom style full from restart
  triclinic box = (-0.010837038 0.048308022 0.043684173) to (17.086915 13.932273 17.202489) with tilt (-7.9851547 0.85373798 -2.7256427)
WARNING: Triclinic box skew is large. LAMMPS will run inefficiently. (src/domain.cpp:221)
  1 by 1 by 1 MPI processor grid
  restoring pair style lj/cut from restart
  restoring bond style harmonic from restart
  restoring angle style hybrid from restart
  restoring dihedral style harmonic from restart
  346 atoms
  351 bonds
  656 angles
  777 dihedrals
Finding 1-2 1-3 1-4 neighbors ...
  special bond factors lj:    0        0        1       
  special bond factors coul:  0        0        1       
     4 = max # of 1-2 neighbors
    10 = max # of 1-3 neighbors
    14 = max # of special neighbors
  special bonds CPU = 0.000 seconds
  read_restart CPU = 0.001 seconds
include ./input/angles_333-BV-12-vasp.mod
angle_style hybrid fourier cosine/periodic
angle_coeff 1 fourier 58.020602        0.343737        0.374972        0.281246
angle_coeff 2 fourier 157.882480        0.343737        0.374972        0.281246
angle_coeff 3 fourier 32.417871        0.343737        0.374972        0.281246
angle_coeff 4 fourier 83.380072        0.343737        0.374972        0.281246
angle_coeff 5 fourier 221.735285        0.343737        0.374972        0.281246
angle_coeff 6 fourier 114.246973        0.343737        0.374972        0.281246
angle_coeff 7 fourier 90.420412        0.343737        0.374972        0.281246
angle_coeff 8 fourier 75.498766        0.343737        0.374972        0.281246
angle_coeff 9 cosine/periodic 88.853997              -1               3

# Positive deformation

variable delta equal ${up}*${len0}
variable delta equal 0.02*${len0}
variable delta equal 0.02*13.8839649553015
variable deltaxy equal ${up}*xy
variable deltaxy equal 0.02*xy
variable deltaxz equal ${up}*xz
variable deltaxz equal 0.02*xz
variable deltayz equal ${up}*yz
variable deltayz equal 0.02*yz
if "${dir} == 1" then    "change_box all x delta 0 ${delta} xy delta ${deltaxy} xz delta ${deltaxz} remap units box"
if "${dir} == 2" then    "change_box all y delta 0 ${delta} yz delta ${deltayz} remap units box"
if "${dir} == 3" then    "change_box all z delta 0 ${delta} remap units box"
if "${dir} == 4" then    "change_box all yz delta ${delta} remap units box"
if "${dir} == 5" then    "change_box all xz delta ${delta} remap units box"
if "${dir} == 6" then    "change_box all xy delta ${delta} remap units box"
change_box all xy delta ${delta} remap units box
change_box all xy delta 0.27767929910603 remap units box
Changing box ...
WARNING: Triclinic box skew is large. LAMMPS will run inefficiently. (src/domain.cpp:221)
  triclinic box = (-0.010837038 0.048308022 0.043684173) to (17.086915 13.932273 17.202489) with tilt (-7.7074754 0.85373798 -2.7256427)

# Relax atoms positions

minimize ${etol} ${ftol} ${maxiter} ${maxeval}
minimize 0 ${ftol} ${maxiter} ${maxeval}
minimize 0 1e-10 ${maxiter} ${maxeval}
minimize 0 1e-10 100000 ${maxeval}
minimize 0 1e-10 100000 100000
Generated 6 of 6 mixed pair_coeff terms from arithmetic mixing rule
Neighbor list info ...
  update: every = 1 steps, delay = 0 steps, check = yes
  max neighbors/atom: 2000, page size: 100000
  master list distance cutoff = 7
  ghost atom cutoff = 7
  binsize = 3.5, bins = 8 5 5
  1 neighbor lists, perpetual/occasional/extra = 1 0 0
  (1) pair lj/cut, perpetual
      attributes: half, newton on
      pair build: half/bin/newton/tri
      stencil: half/bin/3d/tri
      bin: standard
WARNING: Inconsistent image flags
For more information see https://docs.lammps.org/err0027 (src/domain.cpp:1052)
Per MPI rank memory allocation (min/avg/max) = 19.5 | 19.5 | 19.5 Mbytes
   Step          Temp          E_pair         E_mol          TotEng         Press     
    250241   288.23125     -420.1411       230.97729      107.24729      3325.9527    
    250287   288.23125     -451.25759      105.85112     -48.995371      1044.9805    
Loop time of 0.0302488 on 1 procs for 46 steps with 346 atoms

100.0% CPU use with 1 MPI tasks x 1 OpenMP threads

Minimization stats:
  Stopping criterion = linesearch alpha is zero
  Energy initial, next-to-last, final = 
     -189.163811573401  -345.406469422034  -345.406469422034
  Force two-norm initial, final = 203.61267 21.541477
  Force max component initial, final = 23.256266 4.5826578
  Final line search alpha, max atom move = 2.3793881e-11 1.0903922e-10
  Iterations, force evaluations = 46 147

MPI task timing breakdown:
Section |  min time  |  avg time  |  max time  |%varavg| %total
---------------------------------------------------------------
Pair    | 0.02291    | 0.02291    | 0.02291    |   0.0 | 75.74
Bond    | 0.0059543  | 0.0059543  | 0.0059543  |   0.0 | 19.68
Neigh   | 0          | 0          | 0          |   0.0 |  0.00
Comm    | 0.00075645 | 0.00075645 | 0.00075645 |   0.0 |  2.50
Output  | 0          | 0          | 0          |   0.0 |  0.00
Modify  | 0          | 0          | 0          |   0.0 |  0.00
Other   |            | 0.0006281  |            |       |  2.08

Nlocal:            346 ave         346 max         346 min
Histogram: 1 0 0 0 0 0 0 0 0 0
Nghost:           2098 ave        2098 max        2098 min
Histogram: 1 0 0 0 0 0 0 0 0 0
Neighs:          19919 ave       19919 max       19919 min
Histogram: 1 0 0 0 0 0 0 0 0 0

Total # of neighbors = 19919
Ave neighs/atom = 57.569364
Ave special neighs/atom = 5.8208092
Neighbor list builds = 0
Dangerous builds = 0

# Obtain new stress tensor

variable tmp equal pe
variable e1 equal ${tmp}
variable e1 equal -345.406469422034
variable tmp equal press
variable p1 equal ${tmp}
variable p1 equal 1044.98051461846
variable tmp equal pxx
variable pxx1 equal ${tmp}
variable pxx1 equal 2130.94123697612
variable tmp equal pyy
variable pyy1 equal ${tmp}
variable pyy1 equal 3989.54824356342
variable tmp equal pzz
variable pzz1 equal ${tmp}
variable pzz1 equal -2985.54793668418
variable tmp equal pxy
variable pxy1 equal ${tmp}
variable pxy1 equal -1393.44783150431
variable tmp equal pxz
variable pxz1 equal ${tmp}
variable pxz1 equal 135.348272870576
variable tmp equal pyz
variable pyz1 equal ${tmp}
variable pyz1 equal 503.536998018384

# Compute elastic constant from pressure tensor

variable C1pos equal ${d1}
variable C1pos equal 8.8479671117309
variable C2pos equal ${d2}
variable C2pos equal -4.2024850473121
variable C3pos equal ${d3}
variable C3pos equal 31.3084330074482
variable C4pos equal ${d4}
variable C4pos equal -6.80393899907881
variable C5pos equal ${d5}
variable C5pos equal 7.03915585002167
variable C6pos equal ${d6}
variable C6pos equal -5.35347644276205

# Combine positive and negative

variable C1${dir} equal 0.5*(${C1neg}+${C1pos})
variable C16 equal 0.5*(${C1neg}+${C1pos})
variable C16 equal 0.5*(-13.7782373827216+${C1pos})
variable C16 equal 0.5*(-13.7782373827216+8.8479671117309)
variable C2${dir} equal 0.5*(${C2neg}+${C2pos})
variable C26 equal 0.5*(${C2neg}+${C2pos})
variable C26 equal 0.5*(-1.7773313912897+${C2pos})
variable C26 equal 0.5*(-1.7773313912897+-4.2024850473121)
variable C3${dir} equal 0.5*(${C3neg}+${C3pos})
variable C36 equal 0.5*(${C3neg}+${C3pos})
variable C36 equal 0.5*(-29.3798116310326+${C3pos})
variable C36 equal 0.5*(-29.3798116310326+31.3084330074482)
variable C4${dir} equal 0.5*(${C4neg}+${C4pos})
variable C46 equal 0.5*(${C4neg}+${C4pos})
variable C46 equal 0.5*(6.27854460159274+${C4pos})
variable C46 equal 0.5*(6.27854460159274+-6.80393899907881)
variable C5${dir} equal 0.5*(${C5neg}+${C5pos})
variable C56 equal 0.5*(${C5neg}+${C5pos})
variable C56 equal 0.5*(-2.5586801006126+${C5pos})
variable C56 equal 0.5*(-2.5586801006126+7.03915585002167)
variable C6${dir} equal 0.5*(${C6neg}+${C6pos})
variable C66 equal 0.5*(${C6neg}+${C6pos})
variable C66 equal 0.5*(18.1898064059967+${C6pos})
variable C66 equal 0.5*(18.1898064059967+-5.35347644276205)

# Delete dir to make sure it is not reused

variable dir delete

# Output final values

variable C11all equal ${C11}
variable C11all equal 16.8380717524348
variable C22all equal ${C22}
variable C22all equal 19.6651025216085
variable C33all equal ${C33}
variable C33all equal 18.1938936113149

variable C12all equal 0.5*(${C12}+${C21})
variable C12all equal 0.5*(6.86308103187245+${C21})
variable C12all equal 0.5*(6.86308103187245+6.14643427531185)
variable C13all equal 0.5*(${C13}+${C31})
variable C13all equal 0.5*(5.3448857107446+${C31})
variable C13all equal 0.5*(5.3448857107446+5.28168548587325)
variable C23all equal 0.5*(${C23}+${C32})
variable C23all equal 0.5*(4.45941083399777+${C32})
variable C23all equal 0.5*(4.45941083399777+6.63361398574)

variable C44all equal ${C44}
variable C44all equal 3.2734095020041
variable C55all equal ${C55}
variable C55all equal 4.86743130138421
variable C66all equal ${C66}
variable C66all equal 6.41816498161732

variable C14all equal 0.5*(${C14}+${C41})
variable C14all equal 0.5*(-2.93452545815765+${C41})
variable C14all equal 0.5*(-2.93452545815765+-0.275056406986745)
variable C15all equal 0.5*(${C15}+${C51})
variable C15all equal 0.5*(-1.4432297545231+${C51})
variable C15all equal 0.5*(-1.4432297545231+0.351601386177925)
variable C16all equal 0.5*(${C16}+${C61})
variable C16all equal 0.5*(-2.46513513549535+${C61})
variable C16all equal 0.5*(-2.46513513549535+-1.4623423267137)

variable C24all equal 0.5*(${C24}+${C42})
variable C24all equal 0.5*(1.8747790897206+${C42})
variable C24all equal 0.5*(1.8747790897206+1.02109546647565)
variable C25all equal 0.5*(${C25}+${C52})
variable C25all equal 0.5*(0.424372107380324+${C52})
variable C25all equal 0.5*(0.424372107380324+-0.0826386475230751)
variable C26all equal 0.5*(${C26}+${C62})
variable C26all equal 0.5*(-2.9899082193009+${C62})
variable C26all equal 0.5*(-2.9899082193009+-2.13211218735117)

variable C34all equal 0.5*(${C34}+${C43})
variable C34all equal 0.5*(-3.44411104359185+${C43})
variable C34all equal 0.5*(-3.44411104359185+0.622030251173979)
variable C35all equal 0.5*(${C35}+${C53})
variable C35all equal 0.5*(0.385689976158901+${C53})
variable C35all equal 0.5*(0.385689976158901+0.750075928755535)
variable C36all equal 0.5*(${C36}+${C63})
variable C36all equal 0.5*(0.964310688207801+${C63})
variable C36all equal 0.5*(0.964310688207801+0.18178066376925)

variable C45all equal 0.5*(${C45}+${C54})
variable C45all equal 0.5*(-1.06673491201862+${C54})
variable C45all equal 0.5*(-1.06673491201862+-1.72264808955926)
variable C46all equal 0.5*(${C46}+${C64})
variable C46all equal 0.5*(-0.262697198743035+${C64})
variable C46all equal 0.5*(-0.262697198743035+0.13885228405985)
variable C56all equal 0.5*(${C56}+${C65})
variable C56all equal 0.5*(2.24023787470454+${C65})
variable C56all equal 0.5*(2.24023787470454+0.86028582918715)

# Average moduli for cubic crystals

variable C11cubic equal (${C11all}+${C22all}+${C33all})/3.0
variable C11cubic equal (16.8380717524348+${C22all}+${C33all})/3.0
variable C11cubic equal (16.8380717524348+19.6651025216085+${C33all})/3.0
variable C11cubic equal (16.8380717524348+19.6651025216085+18.1938936113149)/3.0
variable C12cubic equal (${C12all}+${C13all}+${C23all})/3.0
variable C12cubic equal (6.50475765359215+${C13all}+${C23all})/3.0
variable C12cubic equal (6.50475765359215+5.31328559830892+${C23all})/3.0
variable C12cubic equal (6.50475765359215+5.31328559830892+5.54651240986889)/3.0
variable C44cubic equal (${C44all}+${C55all}+${C66all})/3.0
variable C44cubic equal (3.2734095020041+${C55all}+${C66all})/3.0
variable C44cubic equal (3.2734095020041+4.86743130138421+${C66all})/3.0
variable C44cubic equal (3.2734095020041+4.86743130138421+6.41816498161732)/3.0

variable bulkmodulus equal (${C11cubic}+2*${C12cubic})/3.0
variable bulkmodulus equal (18.2323559617861+2*${C12cubic})/3.0
variable bulkmodulus equal (18.2323559617861+2*5.78818522058999)/3.0
variable shearmodulus1 equal ${C44cubic}
variable shearmodulus1 equal 4.85300192833521
variable shearmodulus2 equal (${C11cubic}-${C12cubic})/2.0
variable shearmodulus2 equal (18.2323559617861-${C12cubic})/2.0
variable shearmodulus2 equal (18.2323559617861-5.78818522058999)/2.0
variable poissonratio equal 1.0/(1.0+${C11cubic}/${C12cubic})
variable poissonratio equal 1.0/(1.0+18.2323559617861/${C12cubic})
variable poissonratio equal 1.0/(1.0+18.2323559617861/5.78818522058999)

print "Elastic Constant 1 1 = ${C11all}"
Elastic Constant 1 1 = 16.8380717524348
print "Elastic Constant 2 2 = ${C22all}"
Elastic Constant 2 2 = 19.6651025216085
print "Elastic Constant 3 3 = ${C33all}"
Elastic Constant 3 3 = 18.1938936113149

print "Elastic Constant 1 2 = ${C12all}"
Elastic Constant 1 2 = 6.50475765359215
print "Elastic Constant 1 3 = ${C13all}"
Elastic Constant 1 3 = 5.31328559830892
print "Elastic Constant 2 3 = ${C23all}"
Elastic Constant 2 3 = 5.54651240986889

print "Elastic Constant 4 4 = ${C44all}"
Elastic Constant 4 4 = 3.2734095020041
print "Elastic Constant 5 5 = ${C55all}"
Elastic Constant 5 5 = 4.86743130138421
print "Elastic Constant 6 6 = ${C66all}"
Elastic Constant 6 6 = 6.41816498161732

print "Elastic Constant 1 4 = ${C14all}"
Elastic Constant 1 4 = -1.6047909325722
print "Elastic Constant 1 5 = ${C15all}"
Elastic Constant 1 5 = -0.545814184172588
print "Elastic Constant 1 6 = ${C16all}"
Elastic Constant 1 6 = -1.96373873110453

print "Elastic Constant 2 4 = ${C24all}"
Elastic Constant 2 4 = 1.44793727809813
print "Elastic Constant 2 5 = ${C25all}"
Elastic Constant 2 5 = 0.170866729928624
print "Elastic Constant 2 6 = ${C26all}"
Elastic Constant 2 6 = -2.56101020332603

print "Elastic Constant 3 4 = ${C34all}"
Elastic Constant 3 4 = -1.41104039620894
print "Elastic Constant 3 5 = ${C35all}"
Elastic Constant 3 5 = 0.567882952457218
print "Elastic Constant 3 6 = ${C36all}"
Elastic Constant 3 6 = 0.573045675988526

print "Elastic Constant 4 5 = ${C45all}"
Elastic Constant 4 5 = -1.39469150078894
print "Elastic Constant 4 6 = ${C46all}"
Elastic Constant 4 6 = -0.0619224573415925
print "Elastic Constant 5 6 = ${C56all}"
Elastic Constant 5 6 = 1.55026185194584

print "Bulk Modulus = ${bulkmodulus} ${cunits}"
Bulk Modulus = 9.93624213432203 GPa
print "Shear Modulus 1 = ${shearmodulus1} ${cunits}"
Shear Modulus 1 = 4.85300192833521 GPa
print "Shear Modulus 2 = ${shearmodulus2} ${cunits}"
Shear Modulus 2 = 6.22208537059806 GPa
print "Poisson Ratio = ${poissonratio}"
Poisson Ratio = 0.2409681437501

variable rho equal density
print "density (g/cm^3) = ${rho}"
density (g/cm^3) = 1.2671872335978
Total wall time: 0:01:02
