units           real
atom_style      full
boundary        p p p

pair_style      lj/cut 5.000
bond_style      harmonic
angle_style     hybrid cosine/periodic fourier
dihedral_style  harmonic

dielectric      1.0
special_bonds   lj/coul 0.0 0.0 1.0
pair_modify     tail yes mix arithmetic
box tilt        large

The 'box' command has been removed and will be ignored

read_data       ./dat/data.333U-50C-48-vasp
Reading data file ...
  triclinic box = (0 0 0) to (16.722229 13.589011 17.316128) with tilt (-7.346396 -0.307144 -0.017989)
WARNING: Triclinic box skew is large. LAMMPS will run inefficiently. (src/domain.cpp:221)
  1 by 1 by 1 MPI processor grid
  reading atoms ...
  386 atoms
  scanning bonds ...
  4 = max bonds/atom
  scanning angles ...
  6 = max angles/atom
  scanning dihedrals ...
  24 = max dihedrals/atom
  triclinic box = (0 0 0) to (16.722229 13.589011 17.316128) with tilt (-7.346396 -0.307144 -0.017989)
WARNING: Triclinic box skew is large. LAMMPS will run inefficiently. (src/domain.cpp:221)
  1 by 1 by 1 MPI processor grid
  reading bonds ...
  411 bonds
  reading angles ...
  781 angles
  reading dihedrals ...
  987 dihedrals
Finding 1-2 1-3 1-4 neighbors ...
  special bond factors lj:    0        0        1       
  special bond factors coul:  0        0        1       
     4 = max # of 1-2 neighbors
     8 = max # of 1-3 neighbors
    12 = max # of special neighbors
  special bonds CPU = 0.001 seconds
  read_data CPU = 0.008 seconds

#### Atom Groupings ####
group           fram     id   1:386
386 atoms in group fram
#### END Atom Groupings ####

compute am all property/atom mass
dump        atom_pos all extxyz 100 ./output/333U-50C-48-vasp.lammpstrj
dump_modify atom_pos element Si H C O mass yes
thermo          1000
thermo_style    custom step temp pe ke etotal press vol density

variable up equal 2e-2
variable cfac equal 1.0e-4
variable cunits string GPa

# Define minimization parameters
variable etol equal 0.0
variable ftol equal 1.0e-10
variable maxiter equal 100000
variable maxeval equal 100000
variable dmax equal 1.0e-2

variable temp equal 300.0
variable thermal_damp index 100.0
variable pressure_damp index 500.0

fix relax all box/relax aniso 0.0 vmax 0.001
unfix relax
minimize ${etol} ${ftol} ${maxiter} ${maxeval}
minimize 0 ${ftol} ${maxiter} ${maxeval}
minimize 0 1e-10 ${maxiter} ${maxeval}
minimize 0 1e-10 100000 ${maxeval}
minimize 0 1e-10 100000 100000
Generated 6 of 6 mixed pair_coeff terms from arithmetic mixing rule
Neighbor list info ...
  update: every = 1 steps, delay = 0 steps, check = yes
  max neighbors/atom: 2000, page size: 100000
  master list distance cutoff = 7
  ghost atom cutoff = 7
  binsize = 3.5, bins = 7 4 5
  1 neighbor lists, perpetual/occasional/extra = 1 0 0
  (1) pair lj/cut, perpetual
      attributes: half, newton on
      pair build: half/bin/newton/tri
      stencil: half/bin/3d/tri
      bin: standard
WARNING: Inconsistent image flags
For more information see https://docs.lammps.org/err0027 (src/domain.cpp:1052)
Per MPI rank memory allocation (min/avg/max) = 17.52 | 17.52 | 17.52 Mbytes
   Step          Temp          PotEng         KinEng         TotEng         Press          Volume        Density    
         0   0              1510.5955      0              1510.5955      106370.8       3934.8919      1.7215818    
        98   0              181.82028      0              181.82028      15390.823      3934.8919      1.7215818    
Loop time of 0.0715008 on 1 procs for 98 steps with 386 atoms

99.6% CPU use with 1 MPI tasks x 1 OpenMP threads

Minimization stats:
  Stopping criterion = linesearch alpha is zero
  Energy initial, next-to-last, final = 
      1510.59545857061   181.820281935776   181.820281935776
  Force two-norm initial, final = 902.08816 16.380385
  Force max component initial, final = 98.362195 2.7489089
  Final line search alpha, max atom move = 3.3868316e-11 9.3100915e-11
  Iterations, force evaluations = 98 248

MPI task timing breakdown:
Section |  min time  |  avg time  |  max time  |%varavg| %total
---------------------------------------------------------------
Pair    | 0.04883    | 0.04883    | 0.04883    |   0.0 | 68.29
Bond    | 0.011352   | 0.011352   | 0.011352   |   0.0 | 15.88
Neigh   | 0.0081663  | 0.0081663  | 0.0081663  |   0.0 | 11.42
Comm    | 0.001465   | 0.001465   | 0.001465   |   0.0 |  2.05
Output  | 0          | 0          | 0          |   0.0 |  0.00
Modify  | 0          | 0          | 0          |   0.0 |  0.00
Other   |            | 0.001688   |            |       |  2.36

Nlocal:            386 ave         386 max         386 min
Histogram: 1 0 0 0 0 0 0 0 0 0
Nghost:           2334 ave        2334 max        2334 min
Histogram: 1 0 0 0 0 0 0 0 0 0
Neighs:          25770 ave       25770 max       25770 min
Histogram: 1 0 0 0 0 0 0 0 0 0

Total # of neighbors = 25770
Ave neighs/atom = 66.761658
Ave special neighs/atom = 6.1761658
Neighbor list builds = 3
Dangerous builds = 0

# Generating the full routine as described in the paper for UFF
fix nvt_relax   all nvt temp 300 300 ${thermal_damp}
fix nvt_relax   all nvt temp 300 300 100.0
run 100000      # 100 picoseconds
Generated 6 of 6 mixed pair_coeff terms from arithmetic mixing rule
WARNING: Inconsistent image flags
For more information see https://docs.lammps.org/err0027 (src/domain.cpp:1052)
Per MPI rank memory allocation (min/avg/max) = 17.47 | 17.47 | 17.47 Mbytes
   Step          Temp          PotEng         KinEng         TotEng         Press          Volume        Density    
        98   0              181.82028      0              181.82028      15390.823      3934.8919      1.7215818    
      1000   77.463724      254.76827      88.898289      343.66656      15626.611      3934.8919      1.7215818    
      2000   269.67748      514.68779      309.48508      824.17287      29125.224      3934.8919      1.7215818    
      3000   304.31827      529.78523      349.23926      879.02449      31094.492      3934.8919      1.7215818    
      4000   288.46756      547.72761      331.0488       878.77641      19808.683      3934.8919      1.7215818    
      5000   291.07855      518.26347      334.0452       852.30867      25689.868      3934.8919      1.7215818    
      6000   299.14123      546.57566      343.29803      889.87369      26238.512      3934.8919      1.7215818    
      7000   288.9706       517.55199      331.62609      849.17808      24222.453      3934.8919      1.7215818    
      8000   305.89835      543.6632       351.05258      894.71578      32649.902      3934.8919      1.7215818    
      9000   298.48328      521.2612       342.54296      863.80415      24376.294      3934.8919      1.7215818    
     10000   292.10365      543.33128      335.22162      878.55289      23669.993      3934.8919      1.7215818    
     11000   303.46784      493.59683      348.26329      841.86012      19932.994      3934.8919      1.7215818    
     12000   297.22981      510.22391      341.10446      851.32838      22800.62       3934.8919      1.7215818    
     13000   296.35857      538.31378      340.10461      878.41839      24559.221      3934.8919      1.7215818    
     14000   287.70903      508.45692      330.1783       838.63522      20857.427      3934.8919      1.7215818    
     15000   314.95208      502.65577      361.44275      864.09851      27445.724      3934.8919      1.7215818    
     16000   315.44855      553.08228      362.0125       915.09478      21361.968      3934.8919      1.7215818    
     17000   294.76613      524.45462      338.27711      862.73173      24448.932      3934.8919      1.7215818    
     18000   309.49815      528.83778      355.18375      884.02152      24652.826      3934.8919      1.7215818    
     19000   285.72364      537.29417      327.89984      865.19402      21062.176      3934.8919      1.7215818    
     20000   287.06232      510.72483      329.43612      840.16095      29720.314      3934.8919      1.7215818    
     21000   301.16345      542.31642      345.61874      887.93516      23290.196      3934.8919      1.7215818    
     22000   318.32191      538.17913      365.31001      903.48913      22021.897      3934.8919      1.7215818    
     23000   281.5887       538.14096      323.15453      861.29549      22534.873      3934.8919      1.7215818    
     24000   288.48672      517.84043      331.07078      848.91121      27220.908      3934.8919      1.7215818    
     25000   283.5245       525.23526      325.37609      850.61135      23249.292      3934.8919      1.7215818    
     26000   302.4958       523.82947      347.14777      870.97724      22799.36       3934.8919      1.7215818    
     27000   289.82423      514.07436      332.60572      846.68008      19115.862      3934.8919      1.7215818    
     28000   285.13013      557.71434      327.21872      884.93306      21577.083      3934.8919      1.7215818    
     29000   290.3017       534.44883      333.15367      867.60251      21790.217      3934.8919      1.7215818    
     30000   298.18722      556.0059       342.20319      898.20909      22722.854      3934.8919      1.7215818    
     31000   301.79867      533.6634       346.34774      880.01113      29334.282      3934.8919      1.7215818    
     32000   291.37561      497.62151      334.38611      832.00762      26870.37       3934.8919      1.7215818    
     33000   301.99871      538.34433      346.57731      884.92163      25501.936      3934.8919      1.7215818    
     34000   290.58715      518.6794       333.48126      852.16066      21404.515      3934.8919      1.7215818    
     35000   294.46673      535.14183      337.93351      873.07535      22254.473      3934.8919      1.7215818    
     36000   310.05427      517.36177      355.82196      873.18373      22367.457      3934.8919      1.7215818    
     37000   303.223        490.92469      347.98231      838.907        24846.018      3934.8919      1.7215818    
     38000   308.71792      521.52179      354.28835      875.81014      22565.37       3934.8919      1.7215818    
     39000   313.91223      532.00784      360.2494       892.25725      25225.767      3934.8919      1.7215818    
     40000   284.34164      522.90928      326.31384      849.22312      23618.71       3934.8919      1.7215818    
     41000   309.66514      524.67881      355.37539      880.0542       21042.175      3934.8919      1.7215818    
     42000   297.63991      519.21026      341.5751       860.78536      19907.897      3934.8919      1.7215818    
     43000   304.80146      533.15587      349.79378      882.94965      22060.653      3934.8919      1.7215818    
     44000   328.4241       511.23064      376.90339      888.13403      21062.303      3934.8919      1.7215818    
     45000   296.07767      516.60198      339.78225      856.38424      25047.287      3934.8919      1.7215818    
     46000   304.45036      534.01906      349.39085      883.40991      24281.095      3934.8919      1.7215818    
     47000   275.6834       496.3615       316.37755      812.73905      21616.67       3934.8919      1.7215818    
     48000   305.98994      542.70927      351.15769      893.86695      25886.197      3934.8919      1.7215818    
     49000   289.71124      539.22513      332.47606      871.70119      21249.404      3934.8919      1.7215818    
     50000   320.86245      510.06579      368.22555      878.29134      25068.866      3934.8919      1.7215818    
     51000   284.65896      533.58289      326.678        860.26089      24055.36       3934.8919      1.7215818    
     52000   305.18309      513.79319      350.23173      864.02492      21286.029      3934.8919      1.7215818    
     53000   305.13353      560.75245      350.17486      910.92731      25507.016      3934.8919      1.7215818    
     54000   293.79488      536.54891      337.16249      873.7114       23692.935      3934.8919      1.7215818    
     55000   295.75189      525.27052      339.40837      864.67889      18398.026      3934.8919      1.7215818    
     56000   313.41581      514.74573      359.6797       874.42543      24041.458      3934.8919      1.7215818    
     57000   285.93408      522.20915      328.14135      850.35049      25102.042      3934.8919      1.7215818    
     58000   312.0287       532.76888      358.08784      890.85671      22800.316      3934.8919      1.7215818    
     59000   291.85565      544.13651      334.93701      879.07352      24043.712      3934.8919      1.7215818    
     60000   310.07412      512.36896      355.84475      868.2137       19252.557      3934.8919      1.7215818    
     61000   303.53475      537.13108      348.34008      885.47117      18024.955      3934.8919      1.7215818    
     62000   313.93497      504.54474      360.2755       864.82023      18644.953      3934.8919      1.7215818    
     63000   316.27668      523.45614      362.96288      886.41901      17577.496      3934.8919      1.7215818    
     64000   286.3036       498.59441      328.56541      827.15982      26582.598      3934.8919      1.7215818    
     65000   283.20152      539.06719      325.00543      864.07261      23884.003      3934.8919      1.7215818    
     66000   289.00732      534.53668      331.66823      866.20491      22500.775      3934.8919      1.7215818    
     67000   313.2484       527.41918      359.48758      886.90676      22353.359      3934.8919      1.7215818    
     68000   298.96369      517.89485      343.09428      860.98913      19654.564      3934.8919      1.7215818    
     69000   302.10115      528.8372       346.69486      875.53206      21183.677      3934.8919      1.7215818    
     70000   320.26984      541.86085      367.54547      909.40632      17729.355      3934.8919      1.7215818    
     71000   300.64084      512.99826      345.01899      858.01726      19121.232      3934.8919      1.7215818    
     72000   294.80785      526.04633      338.32499      864.37132      25691.195      3934.8919      1.7215818    
     73000   309.81817      539.41178      355.55101      894.96279      28149.982      3934.8919      1.7215818    
     74000   297.51793      518.09199      341.4351       859.52709      21417.473      3934.8919      1.7215818    
     75000   298.51934      511.3162       342.58434      853.90054      23102.071      3934.8919      1.7215818    
     76000   312.76562      510.98001      358.93354      869.91354      21903.578      3934.8919      1.7215818    
     77000   300.69952      519.42459      345.08634      864.51093      22811.63       3934.8919      1.7215818    
     78000   290.29523      542.05564      333.14625      875.2019       30214.581      3934.8919      1.7215818    
     79000   310.98993      511.69846      356.89574      868.5942       25888.28       3934.8919      1.7215818    
     80000   296.77602      535.20914      340.58368      875.79282      27649.426      3934.8919      1.7215818    
     81000   275.10239      549.90702      315.71077      865.6178       26722.472      3934.8919      1.7215818    
     82000   308.23418      537.88556      353.73321      891.61877      19596.96       3934.8919      1.7215818    
     83000   303.87121      520.88039      348.72621      869.60659      22943.838      3934.8919      1.7215818    
     84000   288.14702      509.19966      330.68094      839.8806       22809.033      3934.8919      1.7215818    
     85000   312.07644      530.89502      358.14262      889.03765      23535.731      3934.8919      1.7215818    
     86000   286.80512      517.17404      329.14096      846.315        19335.007      3934.8919      1.7215818    
     87000   311.12577      525.96282      357.05162      883.01445      18211.791      3934.8919      1.7215818    
     88000   302.37769      525.3424       347.01222      872.35462      24640.233      3934.8919      1.7215818    
     89000   284.76742      541.12767      326.80247      867.93013      22350.61       3934.8919      1.7215818    
     90000   306.28829      537.3088       351.50008      888.80888      19748.145      3934.8919      1.7215818    
     91000   319.60533      532.158        366.78287      898.94086      25854.043      3934.8919      1.7215818    
     92000   287.12443      523.90519      329.50741      853.4126       26424.633      3934.8919      1.7215818    
     93000   290.23383      545.72125      333.07579      878.79704      17310.269      3934.8919      1.7215818    
     94000   275.29558      494.73693      315.93248      810.6694       17507.378      3934.8919      1.7215818    
     95000   291.91192      536.43639      335.00159      871.43798      20642.851      3934.8919      1.7215818    
     96000   290.37192      507.04528      333.23426      840.27953      17875.564      3934.8919      1.7215818    
     97000   300.86149      502.43209      345.27222      847.70431      21551.16       3934.8919      1.7215818    
     98000   315.12525      513.9835       361.64148      875.62498      23718.938      3934.8919      1.7215818    
     99000   281.08824      528.86446      322.5802       851.44466      21728.35       3934.8919      1.7215818    
    100000   312.36864      529.21202      358.47796      887.68998      13934.087      3934.8919      1.7215818    
    100098   294.43154      531.26935      337.89313      869.16248      16635.413      3934.8919      1.7215818    
Loop time of 27.0763 on 1 procs for 100000 steps with 386 atoms

Performance: 319.099 ns/day, 0.075 hours/ns, 3693.270 timesteps/s, 1.426 Matom-step/s
99.8% CPU use with 1 MPI tasks x 1 OpenMP threads

MPI task timing breakdown:
Section |  min time  |  avg time  |  max time  |%varavg| %total
---------------------------------------------------------------
Pair    | 16.544     | 16.544     | 16.544     |   0.0 | 61.10
Bond    | 3.9682     | 3.9682     | 3.9682     |   0.0 | 14.66
Neigh   | 4.8798     | 4.8798     | 4.8798     |   0.0 | 18.02
Comm    | 0.58084    | 0.58084    | 0.58084    |   0.0 |  2.15
Output  | 0.57813    | 0.57813    | 0.57813    |   0.0 |  2.14
Modify  | 0.38783    | 0.38783    | 0.38783    |   0.0 |  1.43
Other   |            | 0.1372     |            |       |  0.51

Nlocal:            386 ave         386 max         386 min
Histogram: 1 0 0 0 0 0 0 0 0 0
Nghost:           2350 ave        2350 max        2350 min
Histogram: 1 0 0 0 0 0 0 0 0 0
Neighs:          25813 ave       25813 max       25813 min
Histogram: 1 0 0 0 0 0 0 0 0 0

Total # of neighbors = 25813
Ave neighs/atom = 66.873057
Ave special neighs/atom = 6.1761658
Neighbor list builds = 1727
Dangerous builds = 0
unfix           nvt_relax

fix npt_relax   all npt temp 300 300 ${thermal_damp} iso 0 0 ${pressure_damp}
fix npt_relax   all npt temp 300 300 100.0 iso 0 0 ${pressure_damp}
fix npt_relax   all npt temp 300 300 100.0 iso 0 0 500.0
run 100000      # 100 picoseconds
Generated 6 of 6 mixed pair_coeff terms from arithmetic mixing rule
WARNING: Inconsistent image flags
For more information see https://docs.lammps.org/err0027 (src/domain.cpp:1052)
Per MPI rank memory allocation (min/avg/max) = 17.49 | 17.49 | 17.49 Mbytes
   Step          Temp          PotEng         KinEng         TotEng         Press          Volume        Density    
    100098   294.43154      531.26935      337.89313      869.16248      16635.413      3934.8919      1.7215818    
    101000   290.63531      495.7998       333.53653      829.33633      3575.1293      4061.1973      1.6680397    
    102000   297.12662      524.44127      340.98604      865.42731     -10201.417      4112.8787      1.6470795    
    103000   307.35009      545.88916      352.71861      898.60778      3349.0808      4106.9722      1.6494483    
    104000   291.22487      519.83137      334.21311      854.04448      363.56112      4102.224       1.6513574    
    105000   334.88879      511.42811      384.32235      895.75046      8357.4156      4058.5654      1.6691214    
    106000   312.18378      498.78047      358.26581      857.04628     -5012.2918      4077.8099      1.6612442    
    107000   282.06617      509.208        323.70248      832.91048      798.27699      4094.466       1.6544864    
    108000   305.51768      509.34827      350.61572      859.96399      1276.5751      4080.4176      1.6601825    
    109000   288.3429       504.90707      330.90574      835.81281     -2355.8468      4142.561       1.6352778    
    110000   276.19802      532.06441      316.96813      849.03254     -515.05703      4107.9116      1.6490711    
    111000   291.51438      507.4521       334.54536      841.99746      6148.2167      4105.0194      1.6502329    
    112000   311.87885      511.92294      357.91587      869.83881     -1581.202       4126.7157      1.6415568    
    113000   292.31484      521.44663      335.46398      856.9106       327.23392      4095.0277      1.6542594    
    114000   302.26324      507.03769      346.88089      853.91858      2352.3945      4119.9954      1.6442344    
    115000   313.53605      527.58703      359.81769      887.40472      3244.7934      4071.0803      1.6639903    
    116000   290.16746      485.76115      332.99962      818.76077     -5838.5463      4137.8704      1.6371315    
    117000   293.81016      504.69493      337.18003      841.87496     -4383.2214      4109.3217      1.6485052    
    118000   281.3811       500.92369      322.91629      823.83998     -3981.6216      4127.6396      1.6411893    
    119000   302.63713      510.83323      347.30996      858.14319      2691.3283      4094.6461      1.6544136    
    120000   268.0151       517.96689      307.57731      825.5442       4739.6875      4079.6581      1.6604916    
    121000   300.16079      509.46378      344.46808      853.93187     -5309.7255      4124.9293      1.6422677    
    122000   290.91627      489.11466      333.85897      822.97362     -2881.6411      4112.8104      1.6471068    
    123000   295.95542      496.97076      339.64195      836.61271     -44.446241      4088.7894      1.6567833    
    124000   301.46558      522.7826       345.96548      868.74807      973.97548      4119.3697      1.6444841    
    125000   282.48802      532.32961      324.18661      856.51622     -6244.6287      4122.7818      1.6431231    
    126000   310.00225      500.49775      355.76226      856.26001      7780.0413      4090.2705      1.6561834    
    127000   306.75144      513.65405      352.03159      865.68564      1403.7175      4097.9871      1.6530648    
    128000   316.90998      504.72972      363.68966      868.41938      8162.8335      4073.199       1.6631248    
    129000   296.76445      512.81571      340.57041      853.38612      3004.9123      4106.8808      1.649485     
    130000   292.35658      504.71528      335.51188      840.22717     -1033.4645      4134.582       1.6384336    
    131000   305.44451      538.11236      350.53175      888.6441       34.472577      4109.1606      1.6485698    
    132000   309.69183      493.34128      355.40602      848.7473      -3710.4494      4082.5895      1.6592993    
    133000   315.70435      520.45716      362.30606      882.76322     -350.00225      4110.7475      1.6479334    
    134000   296.41408      508.41982      340.16832      848.58814     -3613.3338      4109.3077      1.6485108    
    135000   310.26744      500.33299      356.0666       856.39959     -44.57794       4127.115       1.641398     
    136000   299.15005      513.34771      343.30815      856.65586      2734.9695      4105.1197      1.6501926    
    137000   316.10184      504.80854      362.76223      867.57076      1037.6989      4117.3584      1.6452875    
    138000   299.78373      529.28212      344.03536      873.31748     -3697.4822      4149.1143      1.632695     
    139000   286.48573      509.68832      328.77443      838.46275      1867.1296      4076.4864      1.6617836    
    140000   298.416        512.96384      342.46574      855.42958      2265.625       4129.7027      1.6403694    
    141000   279.37986      530.68678      320.61964      851.30642     -6443.1047      4120.606       1.6439907    
    142000   276.74963      528.78268      317.60116      846.38385     -2742.4633      4086.231       1.6578207    
    143000   308.09393      519.68647      353.57225      873.25872     -1173.7716      4104.4593      1.6504581    
    144000   287.37763      516.41074      329.79798      846.20872      3703.6192      4094.1481      1.6546148    
    145000   294.09043      499.39397      337.50167      836.89564      5124.8642      4102.8008      1.6511253    
    146000   326.23734      484.96372      374.39384      859.35756     -2911.4129      4173.1493      1.6232916    
    147000   266.05883      497.02716      305.33227      802.35943      3966.3815      4101.1258      1.6517996    
    148000   303.2109       520.8666       347.96842      868.83503     -1108.3239      4076.688       1.6617014    
    149000   299.88012      512.89359      344.14599      857.03957     -3671.7598      4140.4303      1.6361193    
    150000   301.17187      512.04445      345.62841      857.67286      3117.5132      4136.79        1.6375591    
    151000   308.18173      507.51074      353.67301      861.18375      631.90455      4095.8333      1.653934     
    152000   291.94004      510.62812      335.03385      845.66197     -7359.5367      4127.2249      1.6413542    
    153000   309.22096      498.41818      354.86564      853.28382      2203.4424      4131.6909      1.6395801    
    154000   307.21263      486.7673       352.56086      839.32816     -411.44783      4134.5336      1.6384528    
    155000   303.19453      473.04489      347.94964      820.99454     -6287.0804      4108.4296      1.6488631    
    156000   314.83427      502.32701      361.30754      863.63456      2002.4581      4103.0127      1.65104      
    157000   291.65254      508.92501      334.70391      843.62892      2632.6877      4100.9868      1.6518556    
    158000   311.32305      530.97604      357.27802      888.25407      5806.369       4112.3747      1.6472813    
    159000   306.52902      493.94035      351.77634      845.71669      2686.9337      4107.133       1.6493837    
    160000   301.94468      556.88075      346.5153       903.39605      4115.5707      4104.1825      1.6505694    
    161000   291.17062      511.00195      334.15086      845.15282      1072.0605      4112.8134      1.6471056    
    162000   269.60674      513.5605       309.4039       822.9644      -6083.997       4129.0225      1.6406397    
    163000   322.3002       510.92473      369.87554      880.80027     -1691.2678      4124.0572      1.642615     
    164000   300.90553      498.64338      345.32276      843.96614     -268.83663      4133.1198      1.6390133    
    165000   300.88308      502.53983      345.297        847.83683      3557.2048      4126.7934      1.6415259    
    166000   292.76494      500.65377      335.98052      836.63429     -2793.1688      4123.6248      1.6427872    
    167000   303.9589       499.71389      348.82684      848.54073     -1825.1966      4121.8726      1.6434856    
    168000   299.76733      516.08919      344.01655      860.10574     -5795.8842      4141.6866      1.6356231    
    169000   310.33497      495.78424      356.1441       851.92834     -667.55677      4106.3942      1.6496804    
    170000   289.84835      518.19128      332.6334       850.82469      742.61798      4115.2045      1.6461486    
    171000   273.43461      491.1219       313.79681      804.91871      715.69865      4105.3068      1.6501174    
    172000   318.81917      484.37212      365.88067      850.25278     -386.7705       4159.1945      1.628738     
    173000   292.52876      503.83015      335.70948      839.53963      268.17823      4104.5201      1.6504337    
    174000   290.14316      512.7599       332.97173      845.73163      1446.427       4070.5248      1.6642174    
    175000   299.55942      499.46716      343.77794      843.2451       2943.1822      4078.6904      1.6608856    
    176000   304.05563      543.05207      348.93786      891.98992     -9287.313       4130.5109      1.6400485    
    177000   294.66787      506.70701      338.16435      844.87136     -2835.7783      4090.3941      1.6561334    
    178000   300.2248       514.7189       344.54154      859.26044     -3823.922       4081.6126      1.6596965    
    179000   307.33899      514.01588      352.70587      866.72175     -2224.4108      4122.9402      1.64306      
    180000   282.44611      500.45006      324.13851      824.58857     -2359.9881      4121.8147      1.6435087    
    181000   295.8493       493.78458      339.52017      833.30475      1620.6398      4080.6644      1.6600821    
    182000   322.27378      513.71645      369.84522      883.56167     -1324.9275      4103.3694      1.6508965    
    183000   295.04023      505.10297      338.59167      843.69464     -1640.393       4110.1694      1.6481652    
    184000   328.07771      501.40014      376.50587      877.90601     -4788.6666      4080.4425      1.6601724    
    185000   299.89198      491.5864       344.1596       835.746        479.4355       4093.3472      1.6549385    
    186000   315.16286      521.65415      361.68464      883.3388      -2736.6496      4095.1911      1.6541934    
    187000   305.01162      489.12691      350.03496      839.16187      2400.9469      4089.1754      1.6566269    
    188000   300.19668      520.43007      344.50927      864.93935     -267.60568      4111.8673      1.6474846    
    189000   286.64422      508.86103      328.95631      837.81735     -5582.1952      4125.4258      1.64207      
    190000   314.45098      527.80647      360.86767      888.67414     -462.76502      4088.9681      1.6567109    
    191000   271.66479      543.44722      311.76573      855.21295     -916.57508      4114.085       1.6465965    
    192000   272.03389      515.4496       312.18932      827.63893     -3351.9943      4112.5524      1.6472102    
    193000   303.48335      521.97724      348.2811       870.25834      6329.2422      4103.4351      1.6508701    
    194000   278.73425      499.30409      319.87873      819.18282     -4312.0974      4110.4371      1.6480578    
    195000   296.69344      526.62808      340.48891      867.11699     -4338.6382      4112.8823      1.647078     
    196000   304.79675      510.16699      349.78837      859.95536     -6156.2722      4103.0326      1.651032     
    197000   307.55628      504.41632      352.95523      857.37156     -2830.4462      4097.55        1.6532411    
    198000   303.35265      539.26465      348.13111      887.39576      952.15721      4088.7309      1.656807     
    199000   291.64757      486.88883      334.69822      821.58705      1574.9226      4086.1314      1.6578611    
    200000   300.6805       500.41119      345.06451      845.4757       6090.8449      4086.5697      1.6576833    
    200098   302.06077      500.13237      346.64852      846.78089      4564.2768      4058.5979      1.669108     
Loop time of 27.4464 on 1 procs for 100000 steps with 386 atoms

Performance: 314.796 ns/day, 0.076 hours/ns, 3643.467 timesteps/s, 1.406 Matom-step/s
99.7% CPU use with 1 MPI tasks x 1 OpenMP threads

MPI task timing breakdown:
Section |  min time  |  avg time  |  max time  |%varavg| %total
---------------------------------------------------------------
Pair    | 15.366     | 15.366     | 15.366     |   0.0 | 55.99
Bond    | 5.1086     | 5.1086     | 5.1086     |   0.0 | 18.61
Neigh   | 4.8385     | 4.8385     | 4.8385     |   0.0 | 17.63
Comm    | 0.55715    | 0.55715    | 0.55715    |   0.0 |  2.03
Output  | 0.57241    | 0.57241    | 0.57241    |   0.0 |  2.09
Modify  | 0.85699    | 0.85699    | 0.85699    |   0.0 |  3.12
Other   |            | 0.1469     |            |       |  0.54

Nlocal:            386 ave         386 max         386 min
Histogram: 1 0 0 0 0 0 0 0 0 0
Nghost:           2294 ave        2294 max        2294 min
Histogram: 1 0 0 0 0 0 0 0 0 0
Neighs:          24746 ave       24746 max       24746 min
Histogram: 1 0 0 0 0 0 0 0 0 0

Total # of neighbors = 24746
Ave neighs/atom = 64.108808
Ave special neighs/atom = 6.1761658
Neighbor list builds = 2039
Dangerous builds = 0
unfix           npt_relax

# fix nvt_heat    all nvt temp 300 1000 ${thermal_damp}
# run 100000      # 100 picoseconds
# unfix           nvt_heat
#
# fix npt_heat    all npt temp 1000 1000 ${thermal_damp} iso 0 0 ${pressure_damp}
# run 100000      # 100 picoseconds
# unfix           npt_heat
#
# fix cooling_npt all npt temp 1000 300 ${thermal_damp} iso 0 0 ${pressure_damp}
# run 700000      # 700 picoseconds
# unfix           cooling_npt
#
# fix npt_final   all npt temp 300 300 ${thermal_damp} iso 0 0 100
# run 100000      # 100 picoseconds
# unfix           npt_final

# density computation
variable rho equal density
fix integrate  all npt temp ${temp} ${temp} ${thermal_damp} iso 0 0 ${pressure_damp}
fix integrate  all npt temp 300 ${temp} ${thermal_damp} iso 0 0 ${pressure_damp}
fix integrate  all npt temp 300 300 ${thermal_damp} iso 0 0 ${pressure_damp}
fix integrate  all npt temp 300 300 100.0 iso 0 0 ${pressure_damp}
fix integrate  all npt temp 300 300 100.0 iso 0 0 500.0
fix rho50k all ave/time 10 5000 50000 v_rho mode scalar ave one
run 50000
Generated 6 of 6 mixed pair_coeff terms from arithmetic mixing rule
WARNING: Inconsistent image flags
For more information see https://docs.lammps.org/err0027 (src/domain.cpp:1052)
Per MPI rank memory allocation (min/avg/max) = 17.49 | 17.49 | 17.49 Mbytes
   Step          Temp          PotEng         KinEng         TotEng         Press          Volume        Density    
    200098   302.06077      500.13237      346.64852      846.78089      4564.2768      4058.5979      1.669108     
    201000   308.46951      526.33571      354.00327      880.33898     -4147.344       4124.984       1.6422459    
    202000   292.42836      514.20462      335.59426      849.79887     -43.679634      4125.1133      1.6421944    
    203000   294.97564      506.16581      338.51755      844.68336      6148.3851      4115.0532      1.6462091    
    204000   288.32495      535.67635      330.88513      866.56149     -2688.8229      4105.8493      1.6498994    
    205000   298.44755      486.46511      342.50195      828.96707      766.54051      4099.4447      1.652477     
    206000   293.52795      517.97793      336.85616      854.8341      -3355.9709      4098.1411      1.6530027    
    207000   304.42744      540.08128      349.36454      889.44583      2698.3402      4090.2248      1.6562019    
    208000   300.30661      496.69529      344.63544      841.33073      1797.5883      4135.7736      1.6379615    
    209000   300.38812      527.39148      344.72897      872.12046     -95.709177      4092.0492      1.6554635    
    210000   304.96246      495.77222      349.97854      845.75076      4106.6751      4103.8259      1.6507128    
    211000   302.67208      522.80579      347.35007      870.15586      667.90661      4094.1764      1.6546034    
    212000   305.06381      514.5259       350.09485      864.62075     -6719.4221      4160.5842      1.628194     
    213000   301.72825      502.95644      346.26693      849.22336      6226.725       4092.9817      1.6550863    
    214000   324.49119      522.49191      372.38994      894.88185     -5680.2679      4123.819       1.6427099    
    215000   308.28946      511.52846      353.79665      865.32511      4390.9738      4084.5725      1.6584938    
    216000   292.86056      472.02483      336.09025      808.11508      6546.2026      4100.2424      1.6521555    
    217000   305.05314      513.06912      350.0826       863.15173     -1303.7415      4123.9329      1.6426645    
    218000   297.46592      505.5617       341.37542      846.93713     -9238.7022      4139.0496      1.6366651    
    219000   293.40048      508.87298      336.70988      845.58286     -5715.3019      4132.7958      1.6391417    
    220000   302.22125      479.95011      346.8327       826.7828       634.30466      4089.7622      1.6563892    
    221000   312.27943      501.82202      358.37558      860.19761     -4781.6734      4119.7492      1.6443327    
    222000   279.65676      511.98698      320.93742      832.9244      -1427.1187      4116.6855      1.6455564    
    223000   284.7761       508.51881      326.81244      835.33124     -4847.7619      4155.5446      1.6301686    
    224000   318.3372       526.2006       365.32755      891.52815      78.717544      4112.0602      1.6474073    
    225000   302.81663      503.5865       347.51596      851.10247      3884.5697      4112.6529      1.6471699    
    226000   299.26633      520.56203      343.44159      864.00362      414.4191       4140.4286      1.63612      
    227000   302.33312      520.69594      346.96108      867.65702     -2037.8427      4152.8099      1.631242     
    228000   295.94064      506.64004      339.62499      846.26503     -2116.1234      4122.341       1.6432988    
    229000   308.50604      525.45081      354.0452       879.49601     -2128.5474      4107.3213      1.6493081    
    230000   303.11272      478.78427      347.85576      826.64003      2042.7429      4109.5649      1.6484076    
    231000   294.11017      531.80527      337.52432      869.32959     -5631.2584      4116.5483      1.6456112    
    232000   293.49875      494.49347      336.82264      831.31611     -1540.2258      4117.0332      1.6454174    
    233000   280.33298      519.73799      321.71345      841.45144     -5200.399       4118.5819      1.6447987    
    234000   290.55369      528.26725      333.44286      861.71011      792.75424      4115.3546      1.6460885    
    235000   308.42716      475.09595      353.95467      829.05062     -1171.6361      4095.7736      1.6539581    
    236000   297.00728      515.34434      340.84908      856.19342      2408.3402      4106.6264      1.6495871    
    237000   294.91115      531.87414      338.44353      870.31768      1497.6178      4110.0571      1.6482102    
    238000   290.68389      494.59475      333.59228      828.18703      3677.361       4076.3826      1.6618259    
    239000   285.70263      538.86171      327.87573      866.73744     -1294.8253      4118.9703      1.6446436    
    240000   293.5753       516.55079      336.9105       853.46129      2587.7249      4115.2363      1.6461359    
    241000   309.59569      535.22891      355.29569      890.52459      3717.154       4054.1053      1.6709576    
    242000   331.0656       467.93545      379.93481      847.87026      1576.7586      4096.6365      1.6536098    
    243000   313.02277      517.88363      359.22865      877.11229      6719.5092      4092.3111      1.6553576    
    244000   293.36187      494.11292      336.66557      830.77848      4124.0638      4076.5698      1.6617496    
    245000   287.39052      530.37065      329.81278      860.18343      50.90311       4099.4688      1.6524673    
    246000   272.81397      516.69407      313.08455      829.77862      3509.6155      4113.8172      1.6467037    
    247000   310.01737      516.15226      355.77962      871.93188     -3114.3801      4106.099       1.649799     
    248000   292.16323      498.24741      335.28999      833.5374       4654.5913      4077.0937      1.661536     
    249000   306.02936      506.07405      351.20293      857.27698      3320.874       4118.5786      1.6448       
    250000   295.03428      514.12222      338.58485      852.70706      3488.6145      4097.9254      1.6530896    
    250098   304.57334      494.28734      349.53198      843.81932      1143.1229      4121.5579      1.6436111    
Loop time of 14.551 on 1 procs for 50000 steps with 386 atoms

Performance: 296.887 ns/day, 0.081 hours/ns, 3436.196 timesteps/s, 1.326 Matom-step/s
99.8% CPU use with 1 MPI tasks x 1 OpenMP threads

MPI task timing breakdown:
Section |  min time  |  avg time  |  max time  |%varavg| %total
---------------------------------------------------------------
Pair    | 8.1446     | 8.1446     | 8.1446     |   0.0 | 55.97
Bond    | 2.6994     | 2.6994     | 2.6994     |   0.0 | 18.55
Neigh   | 2.5767     | 2.5767     | 2.5767     |   0.0 | 17.71
Comm    | 0.29423    | 0.29423    | 0.29423    |   0.0 |  2.02
Output  | 0.2993     | 0.2993     | 0.2993     |   0.0 |  2.06
Modify  | 0.45894    | 0.45894    | 0.45894    |   0.0 |  3.15
Other   |            | 0.07772    |            |       |  0.53

Nlocal:            386 ave         386 max         386 min
Histogram: 1 0 0 0 0 0 0 0 0 0
Nghost:           2282 ave        2282 max        2282 min
Histogram: 1 0 0 0 0 0 0 0 0 0
Neighs:          24612 ave       24612 max       24612 min
Histogram: 1 0 0 0 0 0 0 0 0 0

Total # of neighbors = 24612
Ave neighs/atom = 63.761658
Ave special neighs/atom = 6.1761658
Neighbor list builds = 1029
Dangerous builds = 0
unfix integrate
unfix rho50k

# Compute initial state
fix 3 all box/relax  aniso 0.0
minimize ${etol} ${ftol} ${maxiter} ${maxeval}
minimize 0 ${ftol} ${maxiter} ${maxeval}
minimize 0 1e-10 ${maxiter} ${maxeval}
minimize 0 1e-10 100000 ${maxeval}
minimize 0 1e-10 100000 100000
Generated 6 of 6 mixed pair_coeff terms from arithmetic mixing rule
WARNING: Energy due to 3 extra global DOFs will be included in minimizer energies
 (src/min.cpp:222)
WARNING: Inconsistent image flags
For more information see https://docs.lammps.org/err0027 (src/domain.cpp:1052)
Per MPI rank memory allocation (min/avg/max) = 18.6 | 18.6 | 18.6 Mbytes
   Step          Temp          PotEng         KinEng         TotEng         Press          Volume        Density    
    250098   304.57334      494.28734      349.53198      843.81932      1143.1229      4121.5579      1.6436111    
    250417   304.57334      269.18549      349.53198      618.71747      3635.3444      4118.21        1.6449472    
Loop time of 0.112916 on 1 procs for 319 steps with 386 atoms

100.0% CPU use with 1 MPI tasks x 1 OpenMP threads

Minimization stats:
  Stopping criterion = linesearch alpha is zero
  Energy initial, next-to-last, final = 
      494.287341015126   269.185488982289   269.185488982289
  Force two-norm initial, final = 723.55409 132.14742
  Force max component initial, final = 232.47437 15.190254
  Final line search alpha, max atom move = 4.0420805e-13 6.1400228e-12
  Iterations, force evaluations = 319 352

MPI task timing breakdown:
Section |  min time  |  avg time  |  max time  |%varavg| %total
---------------------------------------------------------------
Pair    | 0.075044   | 0.075044   | 0.075044   |   0.0 | 66.46
Bond    | 0.021768   | 0.021768   | 0.021768   |   0.0 | 19.28
Neigh   | 0          | 0          | 0          |   0.0 |  0.00
Comm    | 0.002012   | 0.002012   | 0.002012   |   0.0 |  1.78
Output  | 0.0024767  | 0.0024767  | 0.0024767  |   0.0 |  2.19
Modify  | 0          | 0          | 0          |   0.0 |  0.00
Other   |            | 0.01162    |            |       | 10.29

Nlocal:            386 ave         386 max         386 min
Histogram: 1 0 0 0 0 0 0 0 0 0
Nghost:           2288 ave        2288 max        2288 min
Histogram: 1 0 0 0 0 0 0 0 0 0
Neighs:          24557 ave       24557 max       24557 min
Histogram: 1 0 0 0 0 0 0 0 0 0

Total # of neighbors = 24557
Ave neighs/atom = 63.619171
Ave special neighs/atom = 6.1761658
Neighbor list builds = 0
Dangerous builds = 0

variable tmp equal pxx
variable pxx0 equal ${tmp}
variable pxx0 equal 3229.29402382565
variable tmp equal pyy
variable pyy0 equal ${tmp}
variable pyy0 equal 3900.78526414127
variable tmp equal pzz
variable pzz0 equal ${tmp}
variable pzz0 equal 3775.95401725713
variable tmp equal pyz
variable pyz0 equal ${tmp}
variable pyz0 equal -1716.8133033004
variable tmp equal pxz
variable pxz0 equal ${tmp}
variable pxz0 equal 1213.81634750463
variable tmp equal pxy
variable pxy0 equal ${tmp}
variable pxy0 equal 1387.65453726906

variable tmp equal lx
variable lx0 equal ${tmp}
variable lx0 equal 16.9653605955127
variable tmp equal ly
variable ly0 equal ${tmp}
variable ly0 equal 13.779386336002
variable tmp equal lz
variable lz0 equal ${tmp}
variable lz0 equal 17.6163333762347

# These formulas define the derivatives w.r.t. strain components
# Constants uses $, variables use v_
variable d1 equal -(v_pxx1-${pxx0})/(v_delta/v_len0)*${cfac}
variable d1 equal -(v_pxx1-3229.29402382565)/(v_delta/v_len0)*${cfac}
variable d1 equal -(v_pxx1-3229.29402382565)/(v_delta/v_len0)*0.0001
variable d2 equal -(v_pyy1-${pyy0})/(v_delta/v_len0)*${cfac}
variable d2 equal -(v_pyy1-3900.78526414127)/(v_delta/v_len0)*${cfac}
variable d2 equal -(v_pyy1-3900.78526414127)/(v_delta/v_len0)*0.0001
variable d3 equal -(v_pzz1-${pzz0})/(v_delta/v_len0)*${cfac}
variable d3 equal -(v_pzz1-3775.95401725713)/(v_delta/v_len0)*${cfac}
variable d3 equal -(v_pzz1-3775.95401725713)/(v_delta/v_len0)*0.0001
variable d4 equal -(v_pyz1-${pyz0})/(v_delta/v_len0)*${cfac}
variable d4 equal -(v_pyz1--1716.8133033004)/(v_delta/v_len0)*${cfac}
variable d4 equal -(v_pyz1--1716.8133033004)/(v_delta/v_len0)*0.0001
variable d5 equal -(v_pxz1-${pxz0})/(v_delta/v_len0)*${cfac}
variable d5 equal -(v_pxz1-1213.81634750463)/(v_delta/v_len0)*${cfac}
variable d5 equal -(v_pxz1-1213.81634750463)/(v_delta/v_len0)*0.0001
variable d6 equal -(v_pxy1-${pxy0})/(v_delta/v_len0)*${cfac}
variable d6 equal -(v_pxy1-1387.65453726906)/(v_delta/v_len0)*${cfac}
variable d6 equal -(v_pxy1-1387.65453726906)/(v_delta/v_len0)*0.0001

# displace_atoms all random ${atomjiggle} ${atomjiggle} ${atomjiggle} 87287 units box

# Write restart
unfix 3
write_restart restart_333U-50C-48-vasp.equil
System init for write_restart ...
Generated 6 of 6 mixed pair_coeff terms from arithmetic mixing rule

# uxx Perturbation

variable dir equal 1
include ./input/displace_333U-50C-48-vasp.mod
if "${dir} == 1" then    "variable len0 equal ${lx0}"
variable len0 equal ${lx0}
variable len0 equal 16.9653605955127
if "${dir} == 2" then    "variable len0 equal ${ly0}"
if "${dir} == 3" then    "variable len0 equal ${lz0}"
if "${dir} == 4" then    "variable len0 equal ${lz0}"
if "${dir} == 5" then    "variable len0 equal ${lz0}"
if "${dir} == 6" then    "variable len0 equal ${ly0}"

# Reset box and simulation parameters

clear
OMP_NUM_THREADS environment is not set. Defaulting to 1 thread.
  using 1 OpenMP thread(s) per MPI task
box tilt large

The 'box' command has been removed and will be ignored

read_restart restart_333U-50C-48-vasp.equil
Reading restart file ...
  restart file = 10 Sep 2025, LAMMPS = 10 Sep 2025
  restoring atom style full from restart
  triclinic box = (-0.1215658 -0.095187668 -0.15010269) to (16.843795 13.684199 17.466231) with tilt (-7.4493154 -0.31246888 -0.018300871)
WARNING: Triclinic box skew is large. LAMMPS will run inefficiently. (src/domain.cpp:221)
  1 by 1 by 1 MPI processor grid
  restoring pair style lj/cut from restart
  restoring bond style harmonic from restart
  restoring angle style hybrid from restart
  restoring dihedral style harmonic from restart
  386 atoms
  411 bonds
  781 angles
  987 dihedrals
Finding 1-2 1-3 1-4 neighbors ...
  special bond factors lj:    0        0        1       
  special bond factors coul:  0        0        1       
     4 = max # of 1-2 neighbors
     8 = max # of 1-3 neighbors
    12 = max # of special neighbors
  special bonds CPU = 0.000 seconds
  read_restart CPU = 0.002 seconds
include ./input/angles_333U-50C-48-vasp.mod
angle_style hybrid fourier cosine/periodic
angle_coeff 1 fourier 58.020602        0.343737        0.374972        0.281246
angle_coeff 2 fourier 83.380072        0.343737        0.374972        0.281246
angle_coeff 3 fourier 157.882480        0.343737        0.374972        0.281246
angle_coeff 4 fourier 221.735285        0.343737        0.374972        0.281246
angle_coeff 5 fourier 114.246973        0.343737        0.374972        0.281246
angle_coeff 6 fourier 32.417871        0.343737        0.374972        0.281246
angle_coeff 7 fourier 90.420412        0.343737        0.374972        0.281246
angle_coeff 8 fourier 75.498766        0.343737        0.374972        0.281246
angle_coeff 9 cosine/periodic 88.853997              -1               3

# Negative deformation

variable delta equal -${up}*${len0}
variable delta equal -0.02*${len0}
variable delta equal -0.02*16.9653605955127
variable deltaxy equal -${up}*xy
variable deltaxy equal -0.02*xy
variable deltaxz equal -${up}*xz
variable deltaxz equal -0.02*xz
variable deltayz equal -${up}*yz
variable deltayz equal -0.02*yz
if "${dir} == 1" then    "change_box all x delta 0 ${delta} xy delta ${deltaxy} xz delta ${deltaxz} remap units box"
change_box all x delta 0 ${delta} xy delta ${deltaxy} xz delta ${deltaxz} remap units box
change_box all x delta 0 -0.339307211910254 xy delta ${deltaxy} xz delta ${deltaxz} remap units box
change_box all x delta 0 -0.339307211910254 xy delta 0.148986307629396 xz delta ${deltaxz} remap units box
change_box all x delta 0 -0.339307211910254 xy delta 0.148986307629396 xz delta 0.00624937757275776 remap units box
Changing box ...
WARNING: Triclinic box skew is large. LAMMPS will run inefficiently. (src/domain.cpp:221)
  triclinic box = (-0.1215658 -0.095187668 -0.15010269) to (16.504488 13.684199 17.466231) with tilt (-7.4493154 -0.31246888 -0.018300871)
WARNING: Triclinic box skew is large. LAMMPS will run inefficiently. (src/domain.cpp:221)
  triclinic box = (-0.1215658 -0.095187668 -0.15010269) to (16.504488 13.684199 17.466231) with tilt (-7.3003291 -0.31246888 -0.018300871)
WARNING: Triclinic box skew is large. LAMMPS will run inefficiently. (src/domain.cpp:221)
  triclinic box = (-0.1215658 -0.095187668 -0.15010269) to (16.504488 13.684199 17.466231) with tilt (-7.3003291 -0.3062195 -0.018300871)
if "${dir} == 2" then    "change_box all y delta 0 ${delta} yz delta ${deltayz} remap units box"
if "${dir} == 3" then    "change_box all z delta 0 ${delta} remap units box"
if "${dir} == 4" then    "change_box all yz delta ${delta} remap units box"
if "${dir} == 5" then    "change_box all xz delta ${delta} remap units box"
if "${dir} == 6" then    "change_box all xy delta ${delta} remap units box"

# Relax atoms positions

minimize ${etol} ${ftol} ${maxiter} ${maxeval}
minimize 0 ${ftol} ${maxiter} ${maxeval}
minimize 0 1e-10 ${maxiter} ${maxeval}
minimize 0 1e-10 100000 ${maxeval}
minimize 0 1e-10 100000 100000
Generated 6 of 6 mixed pair_coeff terms from arithmetic mixing rule
Neighbor list info ...
  update: every = 1 steps, delay = 0 steps, check = yes
  max neighbors/atom: 2000, page size: 100000
  master list distance cutoff = 7
  ghost atom cutoff = 7
  binsize = 3.5, bins = 7 4 6
  1 neighbor lists, perpetual/occasional/extra = 1 0 0
  (1) pair lj/cut, perpetual
      attributes: half, newton on
      pair build: half/bin/newton/tri
      stencil: half/bin/3d/tri
      bin: standard
WARNING: Inconsistent image flags
For more information see https://docs.lammps.org/err0027 (src/domain.cpp:1052)
Per MPI rank memory allocation (min/avg/max) = 17.52 | 17.52 | 17.52 Mbytes
   Step          Temp          E_pair         E_mol          TotEng         Press     
    250417   304.57334     -401.19716      701.3305       649.66532      30224.672    
    250473   304.57334     -435.13643      595.76902      510.16457      5403.8936    
Loop time of 0.0491035 on 1 procs for 56 steps with 386 atoms

100.0% CPU use with 1 MPI tasks x 1 OpenMP threads

Minimization stats:
  Stopping criterion = linesearch alpha is zero
  Energy initial, next-to-last, final = 
      300.133336912024   160.632590304685   160.632590304685
  Force two-norm initial, final = 214.93944 12.537576
  Force max component initial, final = 23.963371 1.6851371
  Final line search alpha, max atom move = 5.474026e-11 9.2244846e-11
  Iterations, force evaluations = 56 165

MPI task timing breakdown:
Section |  min time  |  avg time  |  max time  |%varavg| %total
---------------------------------------------------------------
Pair    | 0.035502   | 0.035502   | 0.035502   |   0.0 | 72.30
Bond    | 0.0087845  | 0.0087845  | 0.0087845  |   0.0 | 17.89
Neigh   | 0.003024   | 0.003024   | 0.003024   |   0.0 |  6.16
Comm    | 0.00098629 | 0.00098629 | 0.00098629 |   0.0 |  2.01
Output  | 0          | 0          | 0          |   0.0 |  0.00
Modify  | 0          | 0          | 0          |   0.0 |  0.00
Other   |            | 0.0008062  |            |       |  1.64

Nlocal:            386 ave         386 max         386 min
Histogram: 1 0 0 0 0 0 0 0 0 0
Nghost:           2306 ave        2306 max        2306 min
Histogram: 1 0 0 0 0 0 0 0 0 0
Neighs:          25113 ave       25113 max       25113 min
Histogram: 1 0 0 0 0 0 0 0 0 0

Total # of neighbors = 25113
Ave neighs/atom = 65.059585
Ave special neighs/atom = 6.1761658
Neighbor list builds = 1
Dangerous builds = 0

# Obtain new stress tensor

variable tmp equal pxx
variable pxx1 equal ${tmp}
variable pxx1 equal 7921.04892422901
variable tmp equal pyy
variable pyy1 equal ${tmp}
variable pyy1 equal -790.455404466693
variable tmp equal pzz
variable pzz1 equal ${tmp}
variable pzz1 equal 9081.08715144618
variable tmp equal pxy
variable pxy1 equal ${tmp}
variable pxy1 equal -873.10857768132
variable tmp equal pxz
variable pxz1 equal ${tmp}
variable pxz1 equal 1506.46051061857
variable tmp equal pyz
variable pyz1 equal ${tmp}
variable pyz1 equal -317.651096048356

# Compute elastic constant from pressure tensor

variable C1neg equal ${d1}
variable C1neg equal 23.4587745020168
variable C2neg equal ${d2}
variable C2neg equal -23.4562033430398
variable C3neg equal ${d3}
variable C3neg equal 26.5256656709452
variable C4neg equal ${d4}
variable C4neg equal 6.99581103626022
variable C5neg equal ${d5}
variable C5neg equal 1.4632208155697
variable C6neg equal ${d6}
variable C6neg equal -11.3038155747519

# Reset box and simulation parameters

clear
OMP_NUM_THREADS environment is not set. Defaulting to 1 thread.
  using 1 OpenMP thread(s) per MPI task
box tilt large

The 'box' command has been removed and will be ignored

read_restart restart_333U-50C-48-vasp.equil
Reading restart file ...
  restart file = 10 Sep 2025, LAMMPS = 10 Sep 2025
  restoring atom style full from restart
  triclinic box = (-0.1215658 -0.095187668 -0.15010269) to (16.843795 13.684199 17.466231) with tilt (-7.4493154 -0.31246888 -0.018300871)
WARNING: Triclinic box skew is large. LAMMPS will run inefficiently. (src/domain.cpp:221)
  1 by 1 by 1 MPI processor grid
  restoring pair style lj/cut from restart
  restoring bond style harmonic from restart
  restoring angle style hybrid from restart
  restoring dihedral style harmonic from restart
  386 atoms
  411 bonds
  781 angles
  987 dihedrals
Finding 1-2 1-3 1-4 neighbors ...
  special bond factors lj:    0        0        1       
  special bond factors coul:  0        0        1       
     4 = max # of 1-2 neighbors
     8 = max # of 1-3 neighbors
    12 = max # of special neighbors
  special bonds CPU = 0.000 seconds
  read_restart CPU = 0.002 seconds
include ./input/angles_333U-50C-48-vasp.mod
angle_style hybrid fourier cosine/periodic
angle_coeff 1 fourier 58.020602        0.343737        0.374972        0.281246
angle_coeff 2 fourier 83.380072        0.343737        0.374972        0.281246
angle_coeff 3 fourier 157.882480        0.343737        0.374972        0.281246
angle_coeff 4 fourier 221.735285        0.343737        0.374972        0.281246
angle_coeff 5 fourier 114.246973        0.343737        0.374972        0.281246
angle_coeff 6 fourier 32.417871        0.343737        0.374972        0.281246
angle_coeff 7 fourier 90.420412        0.343737        0.374972        0.281246
angle_coeff 8 fourier 75.498766        0.343737        0.374972        0.281246
angle_coeff 9 cosine/periodic 88.853997              -1               3

# Positive deformation

variable delta equal ${up}*${len0}
variable delta equal 0.02*${len0}
variable delta equal 0.02*16.9653605955127
variable deltaxy equal ${up}*xy
variable deltaxy equal 0.02*xy
variable deltaxz equal ${up}*xz
variable deltaxz equal 0.02*xz
variable deltayz equal ${up}*yz
variable deltayz equal 0.02*yz
if "${dir} == 1" then    "change_box all x delta 0 ${delta} xy delta ${deltaxy} xz delta ${deltaxz} remap units box"
change_box all x delta 0 ${delta} xy delta ${deltaxy} xz delta ${deltaxz} remap units box
change_box all x delta 0 0.339307211910254 xy delta ${deltaxy} xz delta ${deltaxz} remap units box
change_box all x delta 0 0.339307211910254 xy delta -0.148986307629396 xz delta ${deltaxz} remap units box
change_box all x delta 0 0.339307211910254 xy delta -0.148986307629396 xz delta -0.00624937757275776 remap units box
Changing box ...
WARNING: Triclinic box skew is large. LAMMPS will run inefficiently. (src/domain.cpp:221)
  triclinic box = (-0.1215658 -0.095187668 -0.15010269) to (17.183102 13.684199 17.466231) with tilt (-7.4493154 -0.31246888 -0.018300871)
WARNING: Triclinic box skew is large. LAMMPS will run inefficiently. (src/domain.cpp:221)
  triclinic box = (-0.1215658 -0.095187668 -0.15010269) to (17.183102 13.684199 17.466231) with tilt (-7.5983017 -0.31246888 -0.018300871)
WARNING: Triclinic box skew is large. LAMMPS will run inefficiently. (src/domain.cpp:221)
  triclinic box = (-0.1215658 -0.095187668 -0.15010269) to (17.183102 13.684199 17.466231) with tilt (-7.5983017 -0.31871826 -0.018300871)
if "${dir} == 2" then    "change_box all y delta 0 ${delta} yz delta ${deltayz} remap units box"
if "${dir} == 3" then    "change_box all z delta 0 ${delta} remap units box"
if "${dir} == 4" then    "change_box all yz delta ${delta} remap units box"
if "${dir} == 5" then    "change_box all xz delta ${delta} remap units box"
if "${dir} == 6" then    "change_box all xy delta ${delta} remap units box"

# Relax atoms positions

minimize ${etol} ${ftol} ${maxiter} ${maxeval}
minimize 0 ${ftol} ${maxiter} ${maxeval}
minimize 0 1e-10 ${maxiter} ${maxeval}
minimize 0 1e-10 100000 ${maxeval}
minimize 0 1e-10 100000 100000
Generated 6 of 6 mixed pair_coeff terms from arithmetic mixing rule
Neighbor list info ...
  update: every = 1 steps, delay = 0 steps, check = yes
  max neighbors/atom: 2000, page size: 100000
  master list distance cutoff = 7
  ghost atom cutoff = 7
  binsize = 3.5, bins = 8 4 6
  1 neighbor lists, perpetual/occasional/extra = 1 0 0
  (1) pair lj/cut, perpetual
      attributes: half, newton on
      pair build: half/bin/newton/tri
      stencil: half/bin/3d/tri
      bin: standard
WARNING: Inconsistent image flags
For more information see https://docs.lammps.org/err0027 (src/domain.cpp:1052)
Per MPI rank memory allocation (min/avg/max) = 17.52 | 17.52 | 17.52 Mbytes
   Step          Temp          E_pair         E_mol          TotEng         Press     
    250417   304.57334     -446.23379      746.62819      649.92639     -22036.057    
    250462   304.57334     -458.44316      637.073        528.16183     -9019.016     
Loop time of 0.038989 on 1 procs for 45 steps with 386 atoms

100.0% CPU use with 1 MPI tasks x 1 OpenMP threads

Minimization stats:
  Stopping criterion = linesearch alpha is zero
  Energy initial, next-to-last, final = 
      300.394407098771   178.629847587764   178.629847587764
  Force two-norm initial, final = 207.67053 17.173936
  Force max component initial, final = 22.685503 2.1555671
  Final line search alpha, max atom move = 2.6560219e-11 5.7252332e-11
  Iterations, force evaluations = 45 145

MPI task timing breakdown:
Section |  min time  |  avg time  |  max time  |%varavg| %total
---------------------------------------------------------------
Pair    | 0.029779   | 0.029779   | 0.029779   |   0.0 | 76.38
Bond    | 0.0076742  | 0.0076742  | 0.0076742  |   0.0 | 19.68
Neigh   | 0          | 0          | 0          |   0.0 |  0.00
Comm    | 0.00083113 | 0.00083113 | 0.00083113 |   0.0 |  2.13
Output  | 0          | 0          | 0          |   0.0 |  0.00
Modify  | 0          | 0          | 0          |   0.0 |  0.00
Other   |            | 0.0007044  |            |       |  1.81

Nlocal:            386 ave         386 max         386 min
Histogram: 1 0 0 0 0 0 0 0 0 0
Nghost:           2264 ave        2264 max        2264 min
Histogram: 1 0 0 0 0 0 0 0 0 0
Neighs:          24069 ave       24069 max       24069 min
Histogram: 1 0 0 0 0 0 0 0 0 0

Total # of neighbors = 24069
Ave neighs/atom = 62.354922
Ave special neighs/atom = 6.1761658
Neighbor list builds = 0
Dangerous builds = 0

# Obtain new stress tensor

variable tmp equal pe
variable e1 equal ${tmp}
variable e1 equal 178.629847587764
variable tmp equal press
variable p1 equal ${tmp}
variable p1 equal -9019.01602241408
variable tmp equal pxx
variable pxx1 equal ${tmp}
variable pxx1 equal -15184.0903199318
variable tmp equal pyy
variable pyy1 equal ${tmp}
variable pyy1 equal -9311.4138562468
variable tmp equal pzz
variable pzz1 equal ${tmp}
variable pzz1 equal -2561.54389106361
variable tmp equal pxy
variable pxy1 equal ${tmp}
variable pxy1 equal -566.605838551985
variable tmp equal pxz
variable pxz1 equal ${tmp}
variable pxz1 equal 2889.53214405611
variable tmp equal pyz
variable pyz1 equal ${tmp}
variable pyz1 equal 634.368855797911

# Compute elastic constant from pressure tensor

variable C1pos equal ${d1}
variable C1pos equal 92.0669217187873
variable C2pos equal ${d2}
variable C2pos equal 66.0609956019404
variable C3pos equal ${d3}
variable C3pos equal 31.6874895416037
variable C4pos equal ${d4}
variable C4pos equal -11.7559107954916
variable C5pos equal ${d5}
variable C5pos equal -8.3785789827574
variable C6pos equal ${d6}
variable C6pos equal 9.77130187910523

# Combine positive and negative

variable C1${dir} equal 0.5*(${C1neg}+${C1pos})
variable C11 equal 0.5*(${C1neg}+${C1pos})
variable C11 equal 0.5*(23.4587745020168+${C1pos})
variable C11 equal 0.5*(23.4587745020168+92.0669217187873)
variable C2${dir} equal 0.5*(${C2neg}+${C2pos})
variable C21 equal 0.5*(${C2neg}+${C2pos})
variable C21 equal 0.5*(-23.4562033430398+${C2pos})
variable C21 equal 0.5*(-23.4562033430398+66.0609956019404)
variable C3${dir} equal 0.5*(${C3neg}+${C3pos})
variable C31 equal 0.5*(${C3neg}+${C3pos})
variable C31 equal 0.5*(26.5256656709452+${C3pos})
variable C31 equal 0.5*(26.5256656709452+31.6874895416037)
variable C4${dir} equal 0.5*(${C4neg}+${C4pos})
variable C41 equal 0.5*(${C4neg}+${C4pos})
variable C41 equal 0.5*(6.99581103626022+${C4pos})
variable C41 equal 0.5*(6.99581103626022+-11.7559107954916)
variable C5${dir} equal 0.5*(${C5neg}+${C5pos})
variable C51 equal 0.5*(${C5neg}+${C5pos})
variable C51 equal 0.5*(1.4632208155697+${C5pos})
variable C51 equal 0.5*(1.4632208155697+-8.3785789827574)
variable C6${dir} equal 0.5*(${C6neg}+${C6pos})
variable C61 equal 0.5*(${C6neg}+${C6pos})
variable C61 equal 0.5*(-11.3038155747519+${C6pos})
variable C61 equal 0.5*(-11.3038155747519+9.77130187910523)

# Delete dir to make sure it is not reused

variable dir delete

# uyy Perturbation

variable dir equal 2
include ./input/displace_333U-50C-48-vasp.mod
if "${dir} == 1" then    "variable len0 equal ${lx0}"
if "${dir} == 2" then    "variable len0 equal ${ly0}"
variable len0 equal ${ly0}
variable len0 equal 13.779386336002
if "${dir} == 3" then    "variable len0 equal ${lz0}"
if "${dir} == 4" then    "variable len0 equal ${lz0}"
if "${dir} == 5" then    "variable len0 equal ${lz0}"
if "${dir} == 6" then    "variable len0 equal ${ly0}"

# Reset box and simulation parameters

clear
OMP_NUM_THREADS environment is not set. Defaulting to 1 thread.
  using 1 OpenMP thread(s) per MPI task
box tilt large

The 'box' command has been removed and will be ignored

read_restart restart_333U-50C-48-vasp.equil
Reading restart file ...
  restart file = 10 Sep 2025, LAMMPS = 10 Sep 2025
  restoring atom style full from restart
  triclinic box = (-0.1215658 -0.095187668 -0.15010269) to (16.843795 13.684199 17.466231) with tilt (-7.4493154 -0.31246888 -0.018300871)
WARNING: Triclinic box skew is large. LAMMPS will run inefficiently. (src/domain.cpp:221)
  1 by 1 by 1 MPI processor grid
  restoring pair style lj/cut from restart
  restoring bond style harmonic from restart
  restoring angle style hybrid from restart
  restoring dihedral style harmonic from restart
  386 atoms
  411 bonds
  781 angles
  987 dihedrals
Finding 1-2 1-3 1-4 neighbors ...
  special bond factors lj:    0        0        1       
  special bond factors coul:  0        0        1       
     4 = max # of 1-2 neighbors
     8 = max # of 1-3 neighbors
    12 = max # of special neighbors
  special bonds CPU = 0.000 seconds
  read_restart CPU = 0.001 seconds
include ./input/angles_333U-50C-48-vasp.mod
angle_style hybrid fourier cosine/periodic
angle_coeff 1 fourier 58.020602        0.343737        0.374972        0.281246
angle_coeff 2 fourier 83.380072        0.343737        0.374972        0.281246
angle_coeff 3 fourier 157.882480        0.343737        0.374972        0.281246
angle_coeff 4 fourier 221.735285        0.343737        0.374972        0.281246
angle_coeff 5 fourier 114.246973        0.343737        0.374972        0.281246
angle_coeff 6 fourier 32.417871        0.343737        0.374972        0.281246
angle_coeff 7 fourier 90.420412        0.343737        0.374972        0.281246
angle_coeff 8 fourier 75.498766        0.343737        0.374972        0.281246
angle_coeff 9 cosine/periodic 88.853997              -1               3

# Negative deformation

variable delta equal -${up}*${len0}
variable delta equal -0.02*${len0}
variable delta equal -0.02*13.779386336002
variable deltaxy equal -${up}*xy
variable deltaxy equal -0.02*xy
variable deltaxz equal -${up}*xz
variable deltaxz equal -0.02*xz
variable deltayz equal -${up}*yz
variable deltayz equal -0.02*yz
if "${dir} == 1" then    "change_box all x delta 0 ${delta} xy delta ${deltaxy} xz delta ${deltaxz} remap units box"
if "${dir} == 2" then    "change_box all y delta 0 ${delta} yz delta ${deltayz} remap units box"
change_box all y delta 0 ${delta} yz delta ${deltayz} remap units box
change_box all y delta 0 -0.27558772672004 yz delta ${deltayz} remap units box
change_box all y delta 0 -0.27558772672004 yz delta 0.000366017415793057 remap units box
Changing box ...
WARNING: Triclinic box skew is large. LAMMPS will run inefficiently. (src/domain.cpp:221)
  triclinic box = (-0.1215658 -0.095187668 -0.15010269) to (16.843795 13.408611 17.466231) with tilt (-7.4493154 -0.31246888 -0.018300871)
WARNING: Triclinic box skew is large. LAMMPS will run inefficiently. (src/domain.cpp:221)
  triclinic box = (-0.1215658 -0.095187668 -0.15010269) to (16.843795 13.408611 17.466231) with tilt (-7.4493154 -0.31246888 -0.017934853)
if "${dir} == 3" then    "change_box all z delta 0 ${delta} remap units box"
if "${dir} == 4" then    "change_box all yz delta ${delta} remap units box"
if "${dir} == 5" then    "change_box all xz delta ${delta} remap units box"
if "${dir} == 6" then    "change_box all xy delta ${delta} remap units box"

# Relax atoms positions

minimize ${etol} ${ftol} ${maxiter} ${maxeval}
minimize 0 ${ftol} ${maxiter} ${maxeval}
minimize 0 1e-10 ${maxiter} ${maxeval}
minimize 0 1e-10 100000 ${maxeval}
minimize 0 1e-10 100000 100000
Generated 6 of 6 mixed pair_coeff terms from arithmetic mixing rule
Neighbor list info ...
  update: every = 1 steps, delay = 0 steps, check = yes
  max neighbors/atom: 2000, page size: 100000
  master list distance cutoff = 7
  ghost atom cutoff = 7
  binsize = 3.5, bins = 8 4 6
  1 neighbor lists, perpetual/occasional/extra = 1 0 0
  (1) pair lj/cut, perpetual
      attributes: half, newton on
      pair build: half/bin/newton/tri
      stencil: half/bin/3d/tri
      bin: standard
WARNING: Inconsistent image flags
For more information see https://docs.lammps.org/err0027 (src/domain.cpp:1052)
Per MPI rank memory allocation (min/avg/max) = 17.52 | 17.52 | 17.52 Mbytes
   Step          Temp          E_pair         E_mol          TotEng         Press     
    250417   304.57334     -398.76961      700.72197      651.48433      30593.691    
    250451   304.57334     -425.28883      589.53128      513.77443      6473.8004    
Loop time of 0.0350928 on 1 procs for 34 steps with 386 atoms

100.0% CPU use with 1 MPI tasks x 1 OpenMP threads

Minimization stats:
  Stopping criterion = linesearch alpha is zero
  Energy initial, next-to-last, final = 
       301.95235141041   164.242444752018   164.242444752018
  Force two-norm initial, final = 230.16471 23.600221
  Force max component initial, final = 26.249638 3.3312934
  Final line search alpha, max atom move = 1.3444463e-11 4.4787452e-11
  Iterations, force evaluations = 34 125

MPI task timing breakdown:
Section |  min time  |  avg time  |  max time  |%varavg| %total
---------------------------------------------------------------
Pair    | 0.027135   | 0.027135   | 0.027135   |   0.0 | 77.32
Bond    | 0.0066448  | 0.0066448  | 0.0066448  |   0.0 | 18.93
Neigh   | 0          | 0          | 0          |   0.0 |  0.00
Comm    | 0.00074408 | 0.00074408 | 0.00074408 |   0.0 |  2.12
Output  | 0          | 0          | 0          |   0.0 |  0.00
Modify  | 0          | 0          | 0          |   0.0 |  0.00
Other   |            | 0.0005685  |            |       |  1.62

Nlocal:            386 ave         386 max         386 min
Histogram: 1 0 0 0 0 0 0 0 0 0
Nghost:           2322 ave        2322 max        2322 min
Histogram: 1 0 0 0 0 0 0 0 0 0
Neighs:          25068 ave       25068 max       25068 min
Histogram: 1 0 0 0 0 0 0 0 0 0

Total # of neighbors = 25068
Ave neighs/atom = 64.943005
Ave special neighs/atom = 6.1761658
Neighbor list builds = 0
Dangerous builds = 0

# Obtain new stress tensor

variable tmp equal pxx
variable pxx1 equal ${tmp}
variable pxx1 equal 1119.11384217309
variable tmp equal pyy
variable pyy1 equal ${tmp}
variable pyy1 equal 9932.78928440706
variable tmp equal pzz
variable pzz1 equal ${tmp}
variable pzz1 equal 8369.49819776773
variable tmp equal pxy
variable pxy1 equal ${tmp}
variable pxy1 equal -1234.76367240546
variable tmp equal pxz
variable pxz1 equal ${tmp}
variable pxz1 equal 1795.31738492377
variable tmp equal pyz
variable pyz1 equal ${tmp}
variable pyz1 equal -1134.69985616763

# Compute elastic constant from pressure tensor

variable C1neg equal ${d1}
variable C1neg equal -10.5509009082628
variable C2neg equal ${d2}
variable C2neg equal 30.1600201013289
variable C3neg equal ${d3}
variable C3neg equal 22.967720902553
variable C4neg equal ${d4}
variable C4neg equal 2.91056723566385
variable C5neg equal ${d5}
variable C5neg equal 2.9075051870957
variable C6neg equal ${d6}
variable C6neg equal -13.1120910483726

# Reset box and simulation parameters

clear
OMP_NUM_THREADS environment is not set. Defaulting to 1 thread.
  using 1 OpenMP thread(s) per MPI task
box tilt large

The 'box' command has been removed and will be ignored

read_restart restart_333U-50C-48-vasp.equil
Reading restart file ...
  restart file = 10 Sep 2025, LAMMPS = 10 Sep 2025
  restoring atom style full from restart
  triclinic box = (-0.1215658 -0.095187668 -0.15010269) to (16.843795 13.684199 17.466231) with tilt (-7.4493154 -0.31246888 -0.018300871)
WARNING: Triclinic box skew is large. LAMMPS will run inefficiently. (src/domain.cpp:221)
  1 by 1 by 1 MPI processor grid
  restoring pair style lj/cut from restart
  restoring bond style harmonic from restart
  restoring angle style hybrid from restart
  restoring dihedral style harmonic from restart
  386 atoms
  411 bonds
  781 angles
  987 dihedrals
Finding 1-2 1-3 1-4 neighbors ...
  special bond factors lj:    0        0        1       
  special bond factors coul:  0        0        1       
     4 = max # of 1-2 neighbors
     8 = max # of 1-3 neighbors
    12 = max # of special neighbors
  special bonds CPU = 0.000 seconds
  read_restart CPU = 0.001 seconds
include ./input/angles_333U-50C-48-vasp.mod
angle_style hybrid fourier cosine/periodic
angle_coeff 1 fourier 58.020602        0.343737        0.374972        0.281246
angle_coeff 2 fourier 83.380072        0.343737        0.374972        0.281246
angle_coeff 3 fourier 157.882480        0.343737        0.374972        0.281246
angle_coeff 4 fourier 221.735285        0.343737        0.374972        0.281246
angle_coeff 5 fourier 114.246973        0.343737        0.374972        0.281246
angle_coeff 6 fourier 32.417871        0.343737        0.374972        0.281246
angle_coeff 7 fourier 90.420412        0.343737        0.374972        0.281246
angle_coeff 8 fourier 75.498766        0.343737        0.374972        0.281246
angle_coeff 9 cosine/periodic 88.853997              -1               3

# Positive deformation

variable delta equal ${up}*${len0}
variable delta equal 0.02*${len0}
variable delta equal 0.02*13.779386336002
variable deltaxy equal ${up}*xy
variable deltaxy equal 0.02*xy
variable deltaxz equal ${up}*xz
variable deltaxz equal 0.02*xz
variable deltayz equal ${up}*yz
variable deltayz equal 0.02*yz
if "${dir} == 1" then    "change_box all x delta 0 ${delta} xy delta ${deltaxy} xz delta ${deltaxz} remap units box"
if "${dir} == 2" then    "change_box all y delta 0 ${delta} yz delta ${deltayz} remap units box"
change_box all y delta 0 ${delta} yz delta ${deltayz} remap units box
change_box all y delta 0 0.27558772672004 yz delta ${deltayz} remap units box
change_box all y delta 0 0.27558772672004 yz delta -0.000366017415793057 remap units box
Changing box ...
WARNING: Triclinic box skew is large. LAMMPS will run inefficiently. (src/domain.cpp:221)
  triclinic box = (-0.1215658 -0.095187668 -0.15010269) to (16.843795 13.959786 17.466231) with tilt (-7.4493154 -0.31246888 -0.018300871)
WARNING: Triclinic box skew is large. LAMMPS will run inefficiently. (src/domain.cpp:221)
  triclinic box = (-0.1215658 -0.095187668 -0.15010269) to (16.843795 13.959786 17.466231) with tilt (-7.4493154 -0.31246888 -0.018666888)
if "${dir} == 3" then    "change_box all z delta 0 ${delta} remap units box"
if "${dir} == 4" then    "change_box all yz delta ${delta} remap units box"
if "${dir} == 5" then    "change_box all xz delta ${delta} remap units box"
if "${dir} == 6" then    "change_box all xy delta ${delta} remap units box"

# Relax atoms positions

minimize ${etol} ${ftol} ${maxiter} ${maxeval}
minimize 0 ${ftol} ${maxiter} ${maxeval}
minimize 0 1e-10 ${maxiter} ${maxeval}
minimize 0 1e-10 100000 ${maxeval}
minimize 0 1e-10 100000 100000
Generated 6 of 6 mixed pair_coeff terms from arithmetic mixing rule
Neighbor list info ...
  update: every = 1 steps, delay = 0 steps, check = yes
  max neighbors/atom: 2000, page size: 100000
  master list distance cutoff = 7
  ghost atom cutoff = 7
  binsize = 3.5, bins = 8 5 6
  1 neighbor lists, perpetual/occasional/extra = 1 0 0
  (1) pair lj/cut, perpetual
      attributes: half, newton on
      pair build: half/bin/newton/tri
      stencil: half/bin/3d/tri
      bin: standard
WARNING: Inconsistent image flags
For more information see https://docs.lammps.org/err0027 (src/domain.cpp:1052)
Per MPI rank memory allocation (min/avg/max) = 17.52 | 17.52 | 17.52 Mbytes
   Step          Temp          E_pair         E_mol          TotEng         Press     
    250417   304.57334     -447.45481      749.38878      651.46596     -22340.657    
    250471   304.57334     -466.26052      646.65951      529.93097     -10151.769    
Loop time of 0.0459557 on 1 procs for 54 steps with 386 atoms

100.0% CPU use with 1 MPI tasks x 1 OpenMP threads

Minimization stats:
  Stopping criterion = linesearch alpha is zero
  Energy initial, next-to-last, final = 
      301.933974729086   180.398990607375   180.398990607375
  Force two-norm initial, final = 217.49701 11.357414
  Force max component initial, final = 23.694429 1.3479031
  Final line search alpha, max atom move = 8.3647633e-11 1.127489e-10
  Iterations, force evaluations = 54 161

MPI task timing breakdown:
Section |  min time  |  avg time  |  max time  |%varavg| %total
---------------------------------------------------------------
Pair    | 0.033266   | 0.033266   | 0.033266   |   0.0 | 72.39
Bond    | 0.0083959  | 0.0083959  | 0.0083959  |   0.0 | 18.27
Neigh   | 0.0025833  | 0.0025833  | 0.0025833  |   0.0 |  5.62
Comm    | 0.00092101 | 0.00092101 | 0.00092101 |   0.0 |  2.00
Output  | 0          | 0          | 0          |   0.0 |  0.00
Modify  | 0          | 0          | 0          |   0.0 |  0.00
Other   |            | 0.0007892  |            |       |  1.72

Nlocal:            386 ave         386 max         386 min
Histogram: 1 0 0 0 0 0 0 0 0 0
Nghost:           2228 ave        2228 max        2228 min
Histogram: 1 0 0 0 0 0 0 0 0 0
Neighs:          24096 ave       24096 max       24096 min
Histogram: 1 0 0 0 0 0 0 0 0 0

Total # of neighbors = 24096
Ave neighs/atom = 62.42487
Ave special neighs/atom = 6.1761658
Neighbor list builds = 1
Dangerous builds = 0

# Obtain new stress tensor

variable tmp equal pe
variable e1 equal ${tmp}
variable e1 equal 180.398990607375
variable tmp equal press
variable p1 equal ${tmp}
variable p1 equal -10151.7690788835
variable tmp equal pxx
variable pxx1 equal ${tmp}
variable pxx1 equal -9553.07309640714
variable tmp equal pyy
variable pyy1 equal ${tmp}
variable pyy1 equal -18541.7652632797
variable tmp equal pzz
variable pzz1 equal ${tmp}
variable pzz1 equal -2360.46887696364
variable tmp equal pxy
variable pxy1 equal ${tmp}
variable pxy1 equal -13.081834855264
variable tmp equal pxz
variable pxz1 equal ${tmp}
variable pxz1 equal 2506.32816946737
variable tmp equal pyz
variable pyz1 equal ${tmp}
variable pyz1 equal 494.154686421418

# Compute elastic constant from pressure tensor

variable C1pos equal ${d1}
variable C1pos equal 63.911835601164
variable C2pos equal ${d2}
variable C2pos equal 112.212752637105
variable C3pos equal ${d3}
variable C3pos equal 30.6821144711039
variable C4pos equal ${d4}
variable C4pos equal -11.0548399486091
variable C5pos equal ${d5}
variable C5pos equal -6.4625591098137
variable C6pos equal ${d6}
variable C6pos equal 7.00368186062162

# Combine positive and negative

variable C1${dir} equal 0.5*(${C1neg}+${C1pos})
variable C12 equal 0.5*(${C1neg}+${C1pos})
variable C12 equal 0.5*(-10.5509009082628+${C1pos})
variable C12 equal 0.5*(-10.5509009082628+63.911835601164)
variable C2${dir} equal 0.5*(${C2neg}+${C2pos})
variable C22 equal 0.5*(${C2neg}+${C2pos})
variable C22 equal 0.5*(30.1600201013289+${C2pos})
variable C22 equal 0.5*(30.1600201013289+112.212752637105)
variable C3${dir} equal 0.5*(${C3neg}+${C3pos})
variable C32 equal 0.5*(${C3neg}+${C3pos})
variable C32 equal 0.5*(22.967720902553+${C3pos})
variable C32 equal 0.5*(22.967720902553+30.6821144711039)
variable C4${dir} equal 0.5*(${C4neg}+${C4pos})
variable C42 equal 0.5*(${C4neg}+${C4pos})
variable C42 equal 0.5*(2.91056723566385+${C4pos})
variable C42 equal 0.5*(2.91056723566385+-11.0548399486091)
variable C5${dir} equal 0.5*(${C5neg}+${C5pos})
variable C52 equal 0.5*(${C5neg}+${C5pos})
variable C52 equal 0.5*(2.9075051870957+${C5pos})
variable C52 equal 0.5*(2.9075051870957+-6.4625591098137)
variable C6${dir} equal 0.5*(${C6neg}+${C6pos})
variable C62 equal 0.5*(${C6neg}+${C6pos})
variable C62 equal 0.5*(-13.1120910483726+${C6pos})
variable C62 equal 0.5*(-13.1120910483726+7.00368186062162)

# Delete dir to make sure it is not reused

variable dir delete

# uzz Perturbation

variable dir equal 3
include ./input/displace_333U-50C-48-vasp.mod
if "${dir} == 1" then    "variable len0 equal ${lx0}"
if "${dir} == 2" then    "variable len0 equal ${ly0}"
if "${dir} == 3" then    "variable len0 equal ${lz0}"
variable len0 equal ${lz0}
variable len0 equal 17.6163333762347
if "${dir} == 4" then    "variable len0 equal ${lz0}"
if "${dir} == 5" then    "variable len0 equal ${lz0}"
if "${dir} == 6" then    "variable len0 equal ${ly0}"

# Reset box and simulation parameters

clear
OMP_NUM_THREADS environment is not set. Defaulting to 1 thread.
  using 1 OpenMP thread(s) per MPI task
box tilt large

The 'box' command has been removed and will be ignored

read_restart restart_333U-50C-48-vasp.equil
Reading restart file ...
  restart file = 10 Sep 2025, LAMMPS = 10 Sep 2025
  restoring atom style full from restart
  triclinic box = (-0.1215658 -0.095187668 -0.15010269) to (16.843795 13.684199 17.466231) with tilt (-7.4493154 -0.31246888 -0.018300871)
WARNING: Triclinic box skew is large. LAMMPS will run inefficiently. (src/domain.cpp:221)
  1 by 1 by 1 MPI processor grid
  restoring pair style lj/cut from restart
  restoring bond style harmonic from restart
  restoring angle style hybrid from restart
  restoring dihedral style harmonic from restart
  386 atoms
  411 bonds
  781 angles
  987 dihedrals
Finding 1-2 1-3 1-4 neighbors ...
  special bond factors lj:    0        0        1       
  special bond factors coul:  0        0        1       
     4 = max # of 1-2 neighbors
     8 = max # of 1-3 neighbors
    12 = max # of special neighbors
  special bonds CPU = 0.000 seconds
  read_restart CPU = 0.001 seconds
include ./input/angles_333U-50C-48-vasp.mod
angle_style hybrid fourier cosine/periodic
angle_coeff 1 fourier 58.020602        0.343737        0.374972        0.281246
angle_coeff 2 fourier 83.380072        0.343737        0.374972        0.281246
angle_coeff 3 fourier 157.882480        0.343737        0.374972        0.281246
angle_coeff 4 fourier 221.735285        0.343737        0.374972        0.281246
angle_coeff 5 fourier 114.246973        0.343737        0.374972        0.281246
angle_coeff 6 fourier 32.417871        0.343737        0.374972        0.281246
angle_coeff 7 fourier 90.420412        0.343737        0.374972        0.281246
angle_coeff 8 fourier 75.498766        0.343737        0.374972        0.281246
angle_coeff 9 cosine/periodic 88.853997              -1               3

# Negative deformation

variable delta equal -${up}*${len0}
variable delta equal -0.02*${len0}
variable delta equal -0.02*17.6163333762347
variable deltaxy equal -${up}*xy
variable deltaxy equal -0.02*xy
variable deltaxz equal -${up}*xz
variable deltaxz equal -0.02*xz
variable deltayz equal -${up}*yz
variable deltayz equal -0.02*yz
if "${dir} == 1" then    "change_box all x delta 0 ${delta} xy delta ${deltaxy} xz delta ${deltaxz} remap units box"
if "${dir} == 2" then    "change_box all y delta 0 ${delta} yz delta ${deltayz} remap units box"
if "${dir} == 3" then    "change_box all z delta 0 ${delta} remap units box"
change_box all z delta 0 ${delta} remap units box
change_box all z delta 0 -0.352326667524694 remap units box
Changing box ...
WARNING: Triclinic box skew is large. LAMMPS will run inefficiently. (src/domain.cpp:221)
  triclinic box = (-0.1215658 -0.095187668 -0.15010269) to (16.843795 13.684199 17.113904) with tilt (-7.4493154 -0.31246888 -0.018300871)
if "${dir} == 4" then    "change_box all yz delta ${delta} remap units box"
if "${dir} == 5" then    "change_box all xz delta ${delta} remap units box"
if "${dir} == 6" then    "change_box all xy delta ${delta} remap units box"

# Relax atoms positions

minimize ${etol} ${ftol} ${maxiter} ${maxeval}
minimize 0 ${ftol} ${maxiter} ${maxeval}
minimize 0 1e-10 ${maxiter} ${maxeval}
minimize 0 1e-10 100000 ${maxeval}
minimize 0 1e-10 100000 100000
Generated 6 of 6 mixed pair_coeff terms from arithmetic mixing rule
Neighbor list info ...
  update: every = 1 steps, delay = 0 steps, check = yes
  max neighbors/atom: 2000, page size: 100000
  master list distance cutoff = 7
  ghost atom cutoff = 7
  binsize = 3.5, bins = 8 4 5
  1 neighbor lists, perpetual/occasional/extra = 1 0 0
  (1) pair lj/cut, perpetual
      attributes: half, newton on
      pair build: half/bin/newton/tri
      stencil: half/bin/3d/tri
      bin: standard
WARNING: Inconsistent image flags
For more information see https://docs.lammps.org/err0027 (src/domain.cpp:1052)
Per MPI rank memory allocation (min/avg/max) = 17.52 | 17.52 | 17.52 Mbytes
   Step          Temp          E_pair         E_mol          TotEng         Press     
    250417   304.57334     -397.6166       698.40627      650.32165      30549.435    
    250451   304.57334     -424.70315      597.80893      522.63776      6735.6124    
Loop time of 0.0348435 on 1 procs for 34 steps with 386 atoms

100.0% CPU use with 1 MPI tasks x 1 OpenMP threads

Minimization stats:
  Stopping criterion = linesearch alpha is zero
  Energy initial, next-to-last, final = 
      300.789671564313   173.105777519813   173.105777519813
  Force two-norm initial, final = 216.41148 20.31667
  Force max component initial, final = 21.728061 3.2393983
  Final line search alpha, max atom move = 1.9952404e-11 6.4633785e-11
  Iterations, force evaluations = 34 125

MPI task timing breakdown:
Section |  min time  |  avg time  |  max time  |%varavg| %total
---------------------------------------------------------------
Pair    | 0.02693    | 0.02693    | 0.02693    |   0.0 | 77.29
Bond    | 0.0065878  | 0.0065878  | 0.0065878  |   0.0 | 18.91
Neigh   | 0          | 0          | 0          |   0.0 |  0.00
Comm    | 0.00076198 | 0.00076198 | 0.00076198 |   0.0 |  2.19
Output  | 0          | 0          | 0          |   0.0 |  0.00
Modify  | 0          | 0          | 0          |   0.0 |  0.00
Other   |            | 0.0005636  |            |       |  1.62

Nlocal:            386 ave         386 max         386 min
Histogram: 1 0 0 0 0 0 0 0 0 0
Nghost:           2320 ave        2320 max        2320 min
Histogram: 1 0 0 0 0 0 0 0 0 0
Neighs:          25080 ave       25080 max       25080 min
Histogram: 1 0 0 0 0 0 0 0 0 0

Total # of neighbors = 25080
Ave neighs/atom = 64.974093
Ave special neighs/atom = 6.1761658
Neighbor list builds = 0
Dangerous builds = 0

# Obtain new stress tensor

variable tmp equal pxx
variable pxx1 equal ${tmp}
variable pxx1 equal 1917.8963138108
variable tmp equal pyy
variable pyy1 equal ${tmp}
variable pyy1 equal 1593.821722364
variable tmp equal pzz
variable pzz1 equal ${tmp}
variable pzz1 equal 16695.1191107217
variable tmp equal pxy
variable pxy1 equal ${tmp}
variable pxy1 equal -980.483162298356
variable tmp equal pxz
variable pxz1 equal ${tmp}
variable pxz1 equal 2206.58138738213
variable tmp equal pyz
variable pyz1 equal ${tmp}
variable pyz1 equal -754.577437483016

# Compute elastic constant from pressure tensor

variable C1neg equal ${d1}
variable C1neg equal -6.55698855007425
variable C2neg equal ${d2}
variable C2neg equal -11.5348177088864
variable C3neg equal ${d3}
variable C3neg equal 64.5958254673228
variable C4neg equal ${d4}
variable C4neg equal 4.81117932908692
variable C5neg equal ${d5}
variable C5neg equal 4.9638251993875
variable C6neg equal ${d6}
variable C6neg equal -11.8406884978371

# Reset box and simulation parameters

clear
OMP_NUM_THREADS environment is not set. Defaulting to 1 thread.
  using 1 OpenMP thread(s) per MPI task
box tilt large

The 'box' command has been removed and will be ignored

read_restart restart_333U-50C-48-vasp.equil
Reading restart file ...
  restart file = 10 Sep 2025, LAMMPS = 10 Sep 2025
  restoring atom style full from restart
  triclinic box = (-0.1215658 -0.095187668 -0.15010269) to (16.843795 13.684199 17.466231) with tilt (-7.4493154 -0.31246888 -0.018300871)
WARNING: Triclinic box skew is large. LAMMPS will run inefficiently. (src/domain.cpp:221)
  1 by 1 by 1 MPI processor grid
  restoring pair style lj/cut from restart
  restoring bond style harmonic from restart
  restoring angle style hybrid from restart
  restoring dihedral style harmonic from restart
  386 atoms
  411 bonds
  781 angles
  987 dihedrals
Finding 1-2 1-3 1-4 neighbors ...
  special bond factors lj:    0        0        1       
  special bond factors coul:  0        0        1       
     4 = max # of 1-2 neighbors
     8 = max # of 1-3 neighbors
    12 = max # of special neighbors
  special bonds CPU = 0.000 seconds
  read_restart CPU = 0.001 seconds
include ./input/angles_333U-50C-48-vasp.mod
angle_style hybrid fourier cosine/periodic
angle_coeff 1 fourier 58.020602        0.343737        0.374972        0.281246
angle_coeff 2 fourier 83.380072        0.343737        0.374972        0.281246
angle_coeff 3 fourier 157.882480        0.343737        0.374972        0.281246
angle_coeff 4 fourier 221.735285        0.343737        0.374972        0.281246
angle_coeff 5 fourier 114.246973        0.343737        0.374972        0.281246
angle_coeff 6 fourier 32.417871        0.343737        0.374972        0.281246
angle_coeff 7 fourier 90.420412        0.343737        0.374972        0.281246
angle_coeff 8 fourier 75.498766        0.343737        0.374972        0.281246
angle_coeff 9 cosine/periodic 88.853997              -1               3

# Positive deformation

variable delta equal ${up}*${len0}
variable delta equal 0.02*${len0}
variable delta equal 0.02*17.6163333762347
variable deltaxy equal ${up}*xy
variable deltaxy equal 0.02*xy
variable deltaxz equal ${up}*xz
variable deltaxz equal 0.02*xz
variable deltayz equal ${up}*yz
variable deltayz equal 0.02*yz
if "${dir} == 1" then    "change_box all x delta 0 ${delta} xy delta ${deltaxy} xz delta ${deltaxz} remap units box"
if "${dir} == 2" then    "change_box all y delta 0 ${delta} yz delta ${deltayz} remap units box"
if "${dir} == 3" then    "change_box all z delta 0 ${delta} remap units box"
change_box all z delta 0 ${delta} remap units box
change_box all z delta 0 0.352326667524694 remap units box
Changing box ...
WARNING: Triclinic box skew is large. LAMMPS will run inefficiently. (src/domain.cpp:221)
  triclinic box = (-0.1215658 -0.095187668 -0.15010269) to (16.843795 13.684199 17.818557) with tilt (-7.4493154 -0.31246888 -0.018300871)
if "${dir} == 4" then    "change_box all yz delta ${delta} remap units box"
if "${dir} == 5" then    "change_box all xz delta ${delta} remap units box"
if "${dir} == 6" then    "change_box all xy delta ${delta} remap units box"

# Relax atoms positions

minimize ${etol} ${ftol} ${maxiter} ${maxeval}
minimize 0 ${ftol} ${maxiter} ${maxeval}
minimize 0 1e-10 ${maxiter} ${maxeval}
minimize 0 1e-10 100000 ${maxeval}
minimize 0 1e-10 100000 100000
Generated 6 of 6 mixed pair_coeff terms from arithmetic mixing rule
Neighbor list info ...
  update: every = 1 steps, delay = 0 steps, check = yes
  max neighbors/atom: 2000, page size: 100000
  master list distance cutoff = 7
  ghost atom cutoff = 7
  binsize = 3.5, bins = 8 4 6
  1 neighbor lists, perpetual/occasional/extra = 1 0 0
  (1) pair lj/cut, perpetual
      attributes: half, newton on
      pair build: half/bin/newton/tri
      stencil: half/bin/3d/tri
      bin: standard
WARNING: Inconsistent image flags
For more information see https://docs.lammps.org/err0027 (src/domain.cpp:1052)
Per MPI rank memory allocation (min/avg/max) = 17.52 | 17.52 | 17.52 Mbytes
   Step          Temp          E_pair         E_mol          TotEng         Press     
    250417   304.57334     -448.04539      749.38336      650.86996     -22264.742    
    250466   304.57334     -465.94071      636.98153      520.57281     -9876.7266    
Loop time of 0.0502355 on 1 procs for 49 steps with 386 atoms

100.0% CPU use with 1 MPI tasks x 1 OpenMP threads

Minimization stats:
  Stopping criterion = linesearch alpha is zero
  Energy initial, next-to-last, final = 
      301.337975164848   171.040825093884   171.040825093884
  Force two-norm initial, final = 218.83184 14.166699
  Force max component initial, final = 24.176855 2.0025664
  Final line search alpha, max atom move = 3.738039e-11 7.4856714e-11
  Iterations, force evaluations = 49 177

MPI task timing breakdown:
Section |  min time  |  avg time  |  max time  |%varavg| %total
---------------------------------------------------------------
Pair    | 0.036179   | 0.036179   | 0.036179   |   0.0 | 72.02
Bond    | 0.0093466  | 0.0093466  | 0.0093466  |   0.0 | 18.61
Neigh   | 0.0028484  | 0.0028484  | 0.0028484  |   0.0 |  5.67
Comm    | 0.0010446  | 0.0010446  | 0.0010446  |   0.0 |  2.08
Output  | 0          | 0          | 0          |   0.0 |  0.00
Modify  | 0          | 0          | 0          |   0.0 |  0.00
Other   |            | 0.0008172  |            |       |  1.63

Nlocal:            386 ave         386 max         386 min
Histogram: 1 0 0 0 0 0 0 0 0 0
Nghost:           2250 ave        2250 max        2250 min
Histogram: 1 0 0 0 0 0 0 0 0 0
Neighs:          24050 ave       24050 max       24050 min
Histogram: 1 0 0 0 0 0 0 0 0 0

Total # of neighbors = 24050
Ave neighs/atom = 62.305699
Ave special neighs/atom = 6.1761658
Neighbor list builds = 1
Dangerous builds = 0

# Obtain new stress tensor

variable tmp equal pe
variable e1 equal ${tmp}
variable e1 equal 171.040825093884
variable tmp equal press
variable p1 equal ${tmp}
variable p1 equal -9876.72664918605
variable tmp equal pxx
variable pxx1 equal ${tmp}
variable pxx1 equal -10028.2314793426
variable tmp equal pyy
variable pyy1 equal ${tmp}
variable pyy1 equal -9937.50053694493
variable tmp equal pzz
variable pzz1 equal ${tmp}
variable pzz1 equal -9664.44793127066
variable tmp equal pxy
variable pxy1 equal ${tmp}
variable pxy1 equal -139.985556274771
variable tmp equal pxz
variable pxz1 equal ${tmp}
variable pxz1 equal 2290.87077029937
variable tmp equal pyz
variable pyz1 equal ${tmp}
variable pyz1 equal 396.096605751167

# Compute elastic constant from pressure tensor

variable C1pos equal ${d1}
variable C1pos equal 66.2876275158413
variable C2pos equal ${d2}
variable C2pos equal 69.191429005431
variable C3pos equal ${d3}
variable C3pos equal 67.202009742639
variable C4pos equal ${d4}
variable C4pos equal -10.5645495452578
variable C5pos equal ${d5}
variable C5pos equal -5.3852721139737
variable C6pos equal ${d6}
variable C6pos equal 7.63820046771916

# Combine positive and negative

variable C1${dir} equal 0.5*(${C1neg}+${C1pos})
variable C13 equal 0.5*(${C1neg}+${C1pos})
variable C13 equal 0.5*(-6.55698855007425+${C1pos})
variable C13 equal 0.5*(-6.55698855007425+66.2876275158413)
variable C2${dir} equal 0.5*(${C2neg}+${C2pos})
variable C23 equal 0.5*(${C2neg}+${C2pos})
variable C23 equal 0.5*(-11.5348177088864+${C2pos})
variable C23 equal 0.5*(-11.5348177088864+69.191429005431)
variable C3${dir} equal 0.5*(${C3neg}+${C3pos})
variable C33 equal 0.5*(${C3neg}+${C3pos})
variable C33 equal 0.5*(64.5958254673228+${C3pos})
variable C33 equal 0.5*(64.5958254673228+67.202009742639)
variable C4${dir} equal 0.5*(${C4neg}+${C4pos})
variable C43 equal 0.5*(${C4neg}+${C4pos})
variable C43 equal 0.5*(4.81117932908692+${C4pos})
variable C43 equal 0.5*(4.81117932908692+-10.5645495452578)
variable C5${dir} equal 0.5*(${C5neg}+${C5pos})
variable C53 equal 0.5*(${C5neg}+${C5pos})
variable C53 equal 0.5*(4.9638251993875+${C5pos})
variable C53 equal 0.5*(4.9638251993875+-5.3852721139737)
variable C6${dir} equal 0.5*(${C6neg}+${C6pos})
variable C63 equal 0.5*(${C6neg}+${C6pos})
variable C63 equal 0.5*(-11.8406884978371+${C6pos})
variable C63 equal 0.5*(-11.8406884978371+7.63820046771916)

# Delete dir to make sure it is not reused

variable dir delete

# uyz Perturbation

variable dir equal 4
include ./input/displace_333U-50C-48-vasp.mod
if "${dir} == 1" then    "variable len0 equal ${lx0}"
if "${dir} == 2" then    "variable len0 equal ${ly0}"
if "${dir} == 3" then    "variable len0 equal ${lz0}"
if "${dir} == 4" then    "variable len0 equal ${lz0}"
variable len0 equal ${lz0}
variable len0 equal 17.6163333762347
if "${dir} == 5" then    "variable len0 equal ${lz0}"
if "${dir} == 6" then    "variable len0 equal ${ly0}"

# Reset box and simulation parameters

clear
OMP_NUM_THREADS environment is not set. Defaulting to 1 thread.
  using 1 OpenMP thread(s) per MPI task
box tilt large

The 'box' command has been removed and will be ignored

read_restart restart_333U-50C-48-vasp.equil
Reading restart file ...
  restart file = 10 Sep 2025, LAMMPS = 10 Sep 2025
  restoring atom style full from restart
  triclinic box = (-0.1215658 -0.095187668 -0.15010269) to (16.843795 13.684199 17.466231) with tilt (-7.4493154 -0.31246888 -0.018300871)
WARNING: Triclinic box skew is large. LAMMPS will run inefficiently. (src/domain.cpp:221)
  1 by 1 by 1 MPI processor grid
  restoring pair style lj/cut from restart
  restoring bond style harmonic from restart
  restoring angle style hybrid from restart
  restoring dihedral style harmonic from restart
  386 atoms
  411 bonds
  781 angles
  987 dihedrals
Finding 1-2 1-3 1-4 neighbors ...
  special bond factors lj:    0        0        1       
  special bond factors coul:  0        0        1       
     4 = max # of 1-2 neighbors
     8 = max # of 1-3 neighbors
    12 = max # of special neighbors
  special bonds CPU = 0.000 seconds
  read_restart CPU = 0.001 seconds
include ./input/angles_333U-50C-48-vasp.mod
angle_style hybrid fourier cosine/periodic
angle_coeff 1 fourier 58.020602        0.343737        0.374972        0.281246
angle_coeff 2 fourier 83.380072        0.343737        0.374972        0.281246
angle_coeff 3 fourier 157.882480        0.343737        0.374972        0.281246
angle_coeff 4 fourier 221.735285        0.343737        0.374972        0.281246
angle_coeff 5 fourier 114.246973        0.343737        0.374972        0.281246
angle_coeff 6 fourier 32.417871        0.343737        0.374972        0.281246
angle_coeff 7 fourier 90.420412        0.343737        0.374972        0.281246
angle_coeff 8 fourier 75.498766        0.343737        0.374972        0.281246
angle_coeff 9 cosine/periodic 88.853997              -1               3

# Negative deformation

variable delta equal -${up}*${len0}
variable delta equal -0.02*${len0}
variable delta equal -0.02*17.6163333762347
variable deltaxy equal -${up}*xy
variable deltaxy equal -0.02*xy
variable deltaxz equal -${up}*xz
variable deltaxz equal -0.02*xz
variable deltayz equal -${up}*yz
variable deltayz equal -0.02*yz
if "${dir} == 1" then    "change_box all x delta 0 ${delta} xy delta ${deltaxy} xz delta ${deltaxz} remap units box"
if "${dir} == 2" then    "change_box all y delta 0 ${delta} yz delta ${deltayz} remap units box"
if "${dir} == 3" then    "change_box all z delta 0 ${delta} remap units box"
if "${dir} == 4" then    "change_box all yz delta ${delta} remap units box"
change_box all yz delta ${delta} remap units box
change_box all yz delta -0.352326667524694 remap units box
Changing box ...
WARNING: Triclinic box skew is large. LAMMPS will run inefficiently. (src/domain.cpp:221)
  triclinic box = (-0.1215658 -0.095187668 -0.15010269) to (16.843795 13.684199 17.466231) with tilt (-7.4493154 -0.31246888 -0.37062754)
if "${dir} == 5" then    "change_box all xz delta ${delta} remap units box"
if "${dir} == 6" then    "change_box all xy delta ${delta} remap units box"

# Relax atoms positions

minimize ${etol} ${ftol} ${maxiter} ${maxeval}
minimize 0 ${ftol} ${maxiter} ${maxeval}
minimize 0 1e-10 ${maxiter} ${maxeval}
minimize 0 1e-10 100000 ${maxeval}
minimize 0 1e-10 100000 100000
Generated 6 of 6 mixed pair_coeff terms from arithmetic mixing rule
Neighbor list info ...
  update: every = 1 steps, delay = 0 steps, check = yes
  max neighbors/atom: 2000, page size: 100000
  master list distance cutoff = 7
  ghost atom cutoff = 7
  binsize = 3.5, bins = 8 5 6
  1 neighbor lists, perpetual/occasional/extra = 1 0 0
  (1) pair lj/cut, perpetual
      attributes: half, newton on
      pair build: half/bin/newton/tri
      stencil: half/bin/3d/tri
      bin: standard
WARNING: Inconsistent image flags
For more information see https://docs.lammps.org/err0027 (src/domain.cpp:1052)
Per MPI rank memory allocation (min/avg/max) = 17.52 | 17.52 | 17.52 Mbytes
   Step          Temp          E_pair         E_mol          TotEng         Press     
    250417   304.57334     -424.76902      705.51015      630.27311      3673.3204    
    250448   304.57334     -447.40003      616.06602      518.19797     -2435.3694    
Loop time of 0.0329684 on 1 procs for 31 steps with 386 atoms

100.0% CPU use with 1 MPI tasks x 1 OpenMP threads

Minimization stats:
  Stopping criterion = linesearch alpha is zero
  Energy initial, next-to-last, final = 
      280.741132269001   168.665985081577   168.665985081577
  Force two-norm initial, final = 178.40437 22.460443
  Force max component initial, final = 16.76449 4.2184576
  Final line search alpha, max atom move = 1.5334129e-11 6.4686374e-11
  Iterations, force evaluations = 31 119

MPI task timing breakdown:
Section |  min time  |  avg time  |  max time  |%varavg| %total
---------------------------------------------------------------
Pair    | 0.025344   | 0.025344   | 0.025344   |   0.0 | 76.87
Bond    | 0.0064131  | 0.0064131  | 0.0064131  |   0.0 | 19.45
Neigh   | 0          | 0          | 0          |   0.0 |  0.00
Comm    | 0.00067681 | 0.00067681 | 0.00067681 |   0.0 |  2.05
Output  | 0          | 0          | 0          |   0.0 |  0.00
Modify  | 0          | 0          | 0          |   0.0 |  0.00
Other   |            | 0.0005346  |            |       |  1.62

Nlocal:            386 ave         386 max         386 min
Histogram: 1 0 0 0 0 0 0 0 0 0
Nghost:           2296 ave        2296 max        2296 min
Histogram: 1 0 0 0 0 0 0 0 0 0
Neighs:          24554 ave       24554 max       24554 min
Histogram: 1 0 0 0 0 0 0 0 0 0

Total # of neighbors = 24554
Ave neighs/atom = 63.611399
Ave special neighs/atom = 6.1761658
Neighbor list builds = 0
Dangerous builds = 0

# Obtain new stress tensor

variable tmp equal pxx
variable pxx1 equal ${tmp}
variable pxx1 equal -4653.72734432443
variable tmp equal pyy
variable pyy1 equal ${tmp}
variable pyy1 equal -5293.37773210554
variable tmp equal pzz
variable pzz1 equal ${tmp}
variable pzz1 equal 2640.99687955643
variable tmp equal pxy
variable pxy1 equal ${tmp}
variable pxy1 equal -780.707006796852
variable tmp equal pxz
variable pxz1 equal ${tmp}
variable pxz1 equal 2340.73443205288
variable tmp equal pyz
variable pyz1 equal ${tmp}
variable pyz1 equal 3952.22223127101

# Compute elastic constant from pressure tensor

variable C1neg equal ${d1}
variable C1neg equal -39.4151068407504
variable C2neg equal ${d2}
variable C2neg equal -45.970814981234
variable C3neg equal ${d3}
variable C3neg equal -5.6747856885035
variable C4neg equal ${d4}
variable C4neg equal 28.3451776728571
variable C5neg equal ${d5}
variable C5neg equal 5.63459042274125
variable C6neg equal ${d6}
variable C6neg equal -10.8418077203296

# Reset box and simulation parameters

clear
OMP_NUM_THREADS environment is not set. Defaulting to 1 thread.
  using 1 OpenMP thread(s) per MPI task
box tilt large

The 'box' command has been removed and will be ignored

read_restart restart_333U-50C-48-vasp.equil
Reading restart file ...
  restart file = 10 Sep 2025, LAMMPS = 10 Sep 2025
  restoring atom style full from restart
  triclinic box = (-0.1215658 -0.095187668 -0.15010269) to (16.843795 13.684199 17.466231) with tilt (-7.4493154 -0.31246888 -0.018300871)
WARNING: Triclinic box skew is large. LAMMPS will run inefficiently. (src/domain.cpp:221)
  1 by 1 by 1 MPI processor grid
  restoring pair style lj/cut from restart
  restoring bond style harmonic from restart
  restoring angle style hybrid from restart
  restoring dihedral style harmonic from restart
  386 atoms
  411 bonds
  781 angles
  987 dihedrals
Finding 1-2 1-3 1-4 neighbors ...
  special bond factors lj:    0        0        1       
  special bond factors coul:  0        0        1       
     4 = max # of 1-2 neighbors
     8 = max # of 1-3 neighbors
    12 = max # of special neighbors
  special bonds CPU = 0.000 seconds
  read_restart CPU = 0.001 seconds
include ./input/angles_333U-50C-48-vasp.mod
angle_style hybrid fourier cosine/periodic
angle_coeff 1 fourier 58.020602        0.343737        0.374972        0.281246
angle_coeff 2 fourier 83.380072        0.343737        0.374972        0.281246
angle_coeff 3 fourier 157.882480        0.343737        0.374972        0.281246
angle_coeff 4 fourier 221.735285        0.343737        0.374972        0.281246
angle_coeff 5 fourier 114.246973        0.343737        0.374972        0.281246
angle_coeff 6 fourier 32.417871        0.343737        0.374972        0.281246
angle_coeff 7 fourier 90.420412        0.343737        0.374972        0.281246
angle_coeff 8 fourier 75.498766        0.343737        0.374972        0.281246
angle_coeff 9 cosine/periodic 88.853997              -1               3

# Positive deformation

variable delta equal ${up}*${len0}
variable delta equal 0.02*${len0}
variable delta equal 0.02*17.6163333762347
variable deltaxy equal ${up}*xy
variable deltaxy equal 0.02*xy
variable deltaxz equal ${up}*xz
variable deltaxz equal 0.02*xz
variable deltayz equal ${up}*yz
variable deltayz equal 0.02*yz
if "${dir} == 1" then    "change_box all x delta 0 ${delta} xy delta ${deltaxy} xz delta ${deltaxz} remap units box"
if "${dir} == 2" then    "change_box all y delta 0 ${delta} yz delta ${deltayz} remap units box"
if "${dir} == 3" then    "change_box all z delta 0 ${delta} remap units box"
if "${dir} == 4" then    "change_box all yz delta ${delta} remap units box"
change_box all yz delta ${delta} remap units box
change_box all yz delta 0.352326667524694 remap units box
Changing box ...
WARNING: Triclinic box skew is large. LAMMPS will run inefficiently. (src/domain.cpp:221)
  triclinic box = (-0.1215658 -0.095187668 -0.15010269) to (16.843795 13.684199 17.466231) with tilt (-7.4493154 -0.31246888 0.3340258)
if "${dir} == 5" then    "change_box all xz delta ${delta} remap units box"
if "${dir} == 6" then    "change_box all xy delta ${delta} remap units box"

# Relax atoms positions

minimize ${etol} ${ftol} ${maxiter} ${maxeval}
minimize 0 ${ftol} ${maxiter} ${maxeval}
minimize 0 1e-10 ${maxiter} ${maxeval}
minimize 0 1e-10 100000 ${maxeval}
minimize 0 1e-10 100000 100000
Generated 6 of 6 mixed pair_coeff terms from arithmetic mixing rule
Neighbor list info ...
  update: every = 1 steps, delay = 0 steps, check = yes
  max neighbors/atom: 2000, page size: 100000
  master list distance cutoff = 7
  ghost atom cutoff = 7
  binsize = 3.5, bins = 8 5 6
  1 neighbor lists, perpetual/occasional/extra = 1 0 0
  (1) pair lj/cut, perpetual
      attributes: half, newton on
      pair build: half/bin/newton/tri
      stencil: half/bin/3d/tri
      bin: standard
WARNING: Inconsistent image flags
For more information see https://docs.lammps.org/err0027 (src/domain.cpp:1052)
Per MPI rank memory allocation (min/avg/max) = 17.52 | 17.52 | 17.52 Mbytes
   Step          Temp          E_pair         E_mol          TotEng         Press     
    250417   304.57334     -425.75484      710.67253      634.44968      3256.1813    
    250470   304.57334     -450.28767      614.73352      513.97783     -2604.5404    
Loop time of 0.0469298 on 1 procs for 53 steps with 386 atoms

100.0% CPU use with 1 MPI tasks x 1 OpenMP threads

Minimization stats:
  Stopping criterion = linesearch alpha is zero
  Energy initial, next-to-last, final = 
      284.917693674647   164.445844464721   164.445844464721
  Force two-norm initial, final = 179.81837 13.44184
  Force max component initial, final = 23.81206 1.6926725
  Final line search alpha, max atom move = 5.2211835e-11 8.8377537e-11
  Iterations, force evaluations = 53 159

MPI task timing breakdown:
Section |  min time  |  avg time  |  max time  |%varavg| %total
---------------------------------------------------------------
Pair    | 0.033883   | 0.033883   | 0.033883   |   0.0 | 72.20
Bond    | 0.0087063  | 0.0087063  | 0.0087063  |   0.0 | 18.55
Neigh   | 0.0026085  | 0.0026085  | 0.0026085  |   0.0 |  5.56
Comm    | 0.0009377  | 0.0009377  | 0.0009377  |   0.0 |  2.00
Output  | 0          | 0          | 0          |   0.0 |  0.00
Modify  | 0          | 0          | 0          |   0.0 |  0.00
Other   |            | 0.0007945  |            |       |  1.69

Nlocal:            386 ave         386 max         386 min
Histogram: 1 0 0 0 0 0 0 0 0 0
Nghost:           2264 ave        2264 max        2264 min
Histogram: 1 0 0 0 0 0 0 0 0 0
Neighs:          24544 ave       24544 max       24544 min
Histogram: 1 0 0 0 0 0 0 0 0 0

Total # of neighbors = 24544
Ave neighs/atom = 63.585492
Ave special neighs/atom = 6.1761658
Neighbor list builds = 1
Dangerous builds = 0

# Obtain new stress tensor

variable tmp equal pe
variable e1 equal ${tmp}
variable e1 equal 164.445844464721
variable tmp equal press
variable p1 equal ${tmp}
variable p1 equal -2604.54044141185
variable tmp equal pxx
variable pxx1 equal ${tmp}
variable pxx1 equal -4382.61071791787
variable tmp equal pyy
variable pyy1 equal ${tmp}
variable pyy1 equal -5861.75511383521
variable tmp equal pzz
variable pzz1 equal ${tmp}
variable pzz1 equal 2430.74450751752
variable tmp equal pxy
variable pxy1 equal ${tmp}
variable pxy1 equal -494.836469704832
variable tmp equal pxz
variable pxz1 equal ${tmp}
variable pxz1 equal 2087.45332047706
variable tmp equal pyz
variable pyz1 equal ${tmp}
variable pyz1 equal -4217.66024952926

# Compute elastic constant from pressure tensor

variable C1pos equal ${d1}
variable C1pos equal 38.0595237087176
variable C2pos equal ${d2}
variable C2pos equal 48.8127018898824
variable C3pos equal ${d3}
variable C3pos equal 6.72604754869805
variable C4pos equal ${d4}
variable C4pos equal 12.5042347311443
variable C5pos equal ${d5}
variable C5pos equal -4.36818486486215
variable C6pos equal ${d6}
variable C6pos equal 9.41245503486946

# Combine positive and negative

variable C1${dir} equal 0.5*(${C1neg}+${C1pos})
variable C14 equal 0.5*(${C1neg}+${C1pos})
variable C14 equal 0.5*(-39.4151068407504+${C1pos})
variable C14 equal 0.5*(-39.4151068407504+38.0595237087176)
variable C2${dir} equal 0.5*(${C2neg}+${C2pos})
variable C24 equal 0.5*(${C2neg}+${C2pos})
variable C24 equal 0.5*(-45.970814981234+${C2pos})
variable C24 equal 0.5*(-45.970814981234+48.8127018898824)
variable C3${dir} equal 0.5*(${C3neg}+${C3pos})
variable C34 equal 0.5*(${C3neg}+${C3pos})
variable C34 equal 0.5*(-5.6747856885035+${C3pos})
variable C34 equal 0.5*(-5.6747856885035+6.72604754869805)
variable C4${dir} equal 0.5*(${C4neg}+${C4pos})
variable C44 equal 0.5*(${C4neg}+${C4pos})
variable C44 equal 0.5*(28.3451776728571+${C4pos})
variable C44 equal 0.5*(28.3451776728571+12.5042347311443)
variable C5${dir} equal 0.5*(${C5neg}+${C5pos})
variable C54 equal 0.5*(${C5neg}+${C5pos})
variable C54 equal 0.5*(5.63459042274125+${C5pos})
variable C54 equal 0.5*(5.63459042274125+-4.36818486486215)
variable C6${dir} equal 0.5*(${C6neg}+${C6pos})
variable C64 equal 0.5*(${C6neg}+${C6pos})
variable C64 equal 0.5*(-10.8418077203296+${C6pos})
variable C64 equal 0.5*(-10.8418077203296+9.41245503486946)

# Delete dir to make sure it is not reused

variable dir delete

# uxz Perturbation

variable dir equal 5
include ./input/displace_333U-50C-48-vasp.mod
if "${dir} == 1" then    "variable len0 equal ${lx0}"
if "${dir} == 2" then    "variable len0 equal ${ly0}"
if "${dir} == 3" then    "variable len0 equal ${lz0}"
if "${dir} == 4" then    "variable len0 equal ${lz0}"
if "${dir} == 5" then    "variable len0 equal ${lz0}"
variable len0 equal ${lz0}
variable len0 equal 17.6163333762347
if "${dir} == 6" then    "variable len0 equal ${ly0}"

# Reset box and simulation parameters

clear
OMP_NUM_THREADS environment is not set. Defaulting to 1 thread.
  using 1 OpenMP thread(s) per MPI task
box tilt large

The 'box' command has been removed and will be ignored

read_restart restart_333U-50C-48-vasp.equil
Reading restart file ...
  restart file = 10 Sep 2025, LAMMPS = 10 Sep 2025
  restoring atom style full from restart
  triclinic box = (-0.1215658 -0.095187668 -0.15010269) to (16.843795 13.684199 17.466231) with tilt (-7.4493154 -0.31246888 -0.018300871)
WARNING: Triclinic box skew is large. LAMMPS will run inefficiently. (src/domain.cpp:221)
  1 by 1 by 1 MPI processor grid
  restoring pair style lj/cut from restart
  restoring bond style harmonic from restart
  restoring angle style hybrid from restart
  restoring dihedral style harmonic from restart
  386 atoms
  411 bonds
  781 angles
  987 dihedrals
Finding 1-2 1-3 1-4 neighbors ...
  special bond factors lj:    0        0        1       
  special bond factors coul:  0        0        1       
     4 = max # of 1-2 neighbors
     8 = max # of 1-3 neighbors
    12 = max # of special neighbors
  special bonds CPU = 0.000 seconds
  read_restart CPU = 0.001 seconds
include ./input/angles_333U-50C-48-vasp.mod
angle_style hybrid fourier cosine/periodic
angle_coeff 1 fourier 58.020602        0.343737        0.374972        0.281246
angle_coeff 2 fourier 83.380072        0.343737        0.374972        0.281246
angle_coeff 3 fourier 157.882480        0.343737        0.374972        0.281246
angle_coeff 4 fourier 221.735285        0.343737        0.374972        0.281246
angle_coeff 5 fourier 114.246973        0.343737        0.374972        0.281246
angle_coeff 6 fourier 32.417871        0.343737        0.374972        0.281246
angle_coeff 7 fourier 90.420412        0.343737        0.374972        0.281246
angle_coeff 8 fourier 75.498766        0.343737        0.374972        0.281246
angle_coeff 9 cosine/periodic 88.853997              -1               3

# Negative deformation

variable delta equal -${up}*${len0}
variable delta equal -0.02*${len0}
variable delta equal -0.02*17.6163333762347
variable deltaxy equal -${up}*xy
variable deltaxy equal -0.02*xy
variable deltaxz equal -${up}*xz
variable deltaxz equal -0.02*xz
variable deltayz equal -${up}*yz
variable deltayz equal -0.02*yz
if "${dir} == 1" then    "change_box all x delta 0 ${delta} xy delta ${deltaxy} xz delta ${deltaxz} remap units box"
if "${dir} == 2" then    "change_box all y delta 0 ${delta} yz delta ${deltayz} remap units box"
if "${dir} == 3" then    "change_box all z delta 0 ${delta} remap units box"
if "${dir} == 4" then    "change_box all yz delta ${delta} remap units box"
if "${dir} == 5" then    "change_box all xz delta ${delta} remap units box"
change_box all xz delta ${delta} remap units box
change_box all xz delta -0.352326667524694 remap units box
Changing box ...
WARNING: Triclinic box skew is large. LAMMPS will run inefficiently. (src/domain.cpp:221)
  triclinic box = (-0.1215658 -0.095187668 -0.15010269) to (16.843795 13.684199 17.466231) with tilt (-7.4493154 -0.66479555 -0.018300871)
if "${dir} == 6" then    "change_box all xy delta ${delta} remap units box"

# Relax atoms positions

minimize ${etol} ${ftol} ${maxiter} ${maxeval}
minimize 0 ${ftol} ${maxiter} ${maxeval}
minimize 0 1e-10 ${maxiter} ${maxeval}
minimize 0 1e-10 100000 ${maxeval}
minimize 0 1e-10 100000 100000
Generated 6 of 6 mixed pair_coeff terms from arithmetic mixing rule
Neighbor list info ...
  update: every = 1 steps, delay = 0 steps, check = yes
  max neighbors/atom: 2000, page size: 100000
  master list distance cutoff = 7
  ghost atom cutoff = 7
  binsize = 3.5, bins = 8 4 6
  1 neighbor lists, perpetual/occasional/extra = 1 0 0
  (1) pair lj/cut, perpetual
      attributes: half, newton on
      pair build: half/bin/newton/tri
      stencil: half/bin/3d/tri
      bin: standard
WARNING: Inconsistent image flags
For more information see https://docs.lammps.org/err0027 (src/domain.cpp:1052)
Per MPI rank memory allocation (min/avg/max) = 17.52 | 17.52 | 17.52 Mbytes
   Step          Temp          E_pair         E_mol          TotEng         Press     
    250417   304.57334     -424.75954      710.23514      635.00759      3143.8417    
    250477   304.57334     -452.04922      619.64506      517.12783     -3093.3105    
Loop time of 0.0502712 on 1 procs for 60 steps with 386 atoms

100.0% CPU use with 1 MPI tasks x 1 OpenMP threads

Minimization stats:
  Stopping criterion = linesearch alpha is zero
  Energy initial, next-to-last, final = 
      285.475606414191   167.595842657673   167.595842657673
  Force two-norm initial, final = 184.21822 9.6416863
  Force max component initial, final = 15.872771 1.3115556
  Final line search alpha, max atom move = 7.697001e-11 1.0095045e-10
  Iterations, force evaluations = 60 173

MPI task timing breakdown:
Section |  min time  |  avg time  |  max time  |%varavg| %total
---------------------------------------------------------------
Pair    | 0.036344   | 0.036344   | 0.036344   |   0.0 | 72.30
Bond    | 0.0091008  | 0.0091008  | 0.0091008  |   0.0 | 18.10
Neigh   | 0.002944   | 0.002944   | 0.002944   |   0.0 |  5.86
Comm    | 0.0010192  | 0.0010192  | 0.0010192  |   0.0 |  2.03
Output  | 0          | 0          | 0          |   0.0 |  0.00
Modify  | 0          | 0          | 0          |   0.0 |  0.00
Other   |            | 0.0008629  |            |       |  1.72

Nlocal:            386 ave         386 max         386 min
Histogram: 1 0 0 0 0 0 0 0 0 0
Nghost:           2268 ave        2268 max        2268 min
Histogram: 1 0 0 0 0 0 0 0 0 0
Neighs:          24549 ave       24549 max       24549 min
Histogram: 1 0 0 0 0 0 0 0 0 0

Total # of neighbors = 24549
Ave neighs/atom = 63.598446
Ave special neighs/atom = 6.1761658
Neighbor list builds = 1
Dangerous builds = 0

# Obtain new stress tensor

variable tmp equal pxx
variable pxx1 equal ${tmp}
variable pxx1 equal -5287.54418029218
variable tmp equal pyy
variable pyy1 equal ${tmp}
variable pyy1 equal -6686.38870305637
variable tmp equal pzz
variable pzz1 equal ${tmp}
variable pzz1 equal 2694.00139835097
variable tmp equal pxy
variable pxy1 equal ${tmp}
variable pxy1 equal -438.617968570366
variable tmp equal pxz
variable pxz1 equal ${tmp}
variable pxz1 equal 6239.36497220063
variable tmp equal pyz
variable pyz1 equal ${tmp}
variable pyz1 equal 397.890638598349

# Compute elastic constant from pressure tensor

variable C1neg equal ${d1}
variable C1neg equal -42.5841910205892
variable C2neg equal ${d2}
variable C2neg equal -52.9358698359882
variable C3neg equal ${d3}
variable C3neg equal -5.4097630945308
variable C4neg equal ${d4}
variable C4neg equal 10.5735197094937
variable C5neg equal ${d5}
variable C5neg equal 25.12774312348
variable C6neg equal ${d6}
variable C6neg equal -9.13136252919713

# Reset box and simulation parameters

clear
OMP_NUM_THREADS environment is not set. Defaulting to 1 thread.
  using 1 OpenMP thread(s) per MPI task
box tilt large

The 'box' command has been removed and will be ignored

read_restart restart_333U-50C-48-vasp.equil
Reading restart file ...
  restart file = 10 Sep 2025, LAMMPS = 10 Sep 2025
  restoring atom style full from restart
  triclinic box = (-0.1215658 -0.095187668 -0.15010269) to (16.843795 13.684199 17.466231) with tilt (-7.4493154 -0.31246888 -0.018300871)
WARNING: Triclinic box skew is large. LAMMPS will run inefficiently. (src/domain.cpp:221)
  1 by 1 by 1 MPI processor grid
  restoring pair style lj/cut from restart
  restoring bond style harmonic from restart
  restoring angle style hybrid from restart
  restoring dihedral style harmonic from restart
  386 atoms
  411 bonds
  781 angles
  987 dihedrals
Finding 1-2 1-3 1-4 neighbors ...
  special bond factors lj:    0        0        1       
  special bond factors coul:  0        0        1       
     4 = max # of 1-2 neighbors
     8 = max # of 1-3 neighbors
    12 = max # of special neighbors
  special bonds CPU = 0.000 seconds
  read_restart CPU = 0.001 seconds
include ./input/angles_333U-50C-48-vasp.mod
angle_style hybrid fourier cosine/periodic
angle_coeff 1 fourier 58.020602        0.343737        0.374972        0.281246
angle_coeff 2 fourier 83.380072        0.343737        0.374972        0.281246
angle_coeff 3 fourier 157.882480        0.343737        0.374972        0.281246
angle_coeff 4 fourier 221.735285        0.343737        0.374972        0.281246
angle_coeff 5 fourier 114.246973        0.343737        0.374972        0.281246
angle_coeff 6 fourier 32.417871        0.343737        0.374972        0.281246
angle_coeff 7 fourier 90.420412        0.343737        0.374972        0.281246
angle_coeff 8 fourier 75.498766        0.343737        0.374972        0.281246
angle_coeff 9 cosine/periodic 88.853997              -1               3

# Positive deformation

variable delta equal ${up}*${len0}
variable delta equal 0.02*${len0}
variable delta equal 0.02*17.6163333762347
variable deltaxy equal ${up}*xy
variable deltaxy equal 0.02*xy
variable deltaxz equal ${up}*xz
variable deltaxz equal 0.02*xz
variable deltayz equal ${up}*yz
variable deltayz equal 0.02*yz
if "${dir} == 1" then    "change_box all x delta 0 ${delta} xy delta ${deltaxy} xz delta ${deltaxz} remap units box"
if "${dir} == 2" then    "change_box all y delta 0 ${delta} yz delta ${deltayz} remap units box"
if "${dir} == 3" then    "change_box all z delta 0 ${delta} remap units box"
if "${dir} == 4" then    "change_box all yz delta ${delta} remap units box"
if "${dir} == 5" then    "change_box all xz delta ${delta} remap units box"
change_box all xz delta ${delta} remap units box
change_box all xz delta 0.352326667524694 remap units box
Changing box ...
WARNING: Triclinic box skew is large. LAMMPS will run inefficiently. (src/domain.cpp:221)
  triclinic box = (-0.1215658 -0.095187668 -0.15010269) to (16.843795 13.684199 17.466231) with tilt (-7.4493154 0.039857789 -0.018300871)
if "${dir} == 6" then    "change_box all xy delta ${delta} remap units box"

# Relax atoms positions

minimize ${etol} ${ftol} ${maxiter} ${maxeval}
minimize 0 ${ftol} ${maxiter} ${maxeval}
minimize 0 1e-10 ${maxiter} ${maxeval}
minimize 0 1e-10 100000 ${maxeval}
minimize 0 1e-10 100000 100000
Generated 6 of 6 mixed pair_coeff terms from arithmetic mixing rule
Neighbor list info ...
  update: every = 1 steps, delay = 0 steps, check = yes
  max neighbors/atom: 2000, page size: 100000
  master list distance cutoff = 7
  ghost atom cutoff = 7
  binsize = 3.5, bins = 7 4 6
  1 neighbor lists, perpetual/occasional/extra = 1 0 0
  (1) pair lj/cut, perpetual
      attributes: half, newton on
      pair build: half/bin/newton/tri
      stencil: half/bin/3d/tri
      bin: standard
WARNING: Inconsistent image flags
For more information see https://docs.lammps.org/err0027 (src/domain.cpp:1052)
Per MPI rank memory allocation (min/avg/max) = 17.52 | 17.52 | 17.52 Mbytes
   Step          Temp          E_pair         E_mol          TotEng         Press     
    250417   304.57334     -426.07202      707.34344      630.80341      3768.7219    
    250452   304.57334     -444.39374      609.78702      514.92526     -1531.4064    
Loop time of 0.0344679 on 1 procs for 35 steps with 386 atoms

100.0% CPU use with 1 MPI tasks x 1 OpenMP threads

Minimization stats:
  Stopping criterion = linesearch alpha is zero
  Energy initial, next-to-last, final = 
      281.271424601385   165.393274991416   165.393274991416
  Force two-norm initial, final = 185.04797 20.23703
  Force max component initial, final = 18.22536 2.1420935
  Final line search alpha, max atom move = 1.675412e-11 3.5888891e-11
  Iterations, force evaluations = 35 127

MPI task timing breakdown:
Section |  min time  |  avg time  |  max time  |%varavg| %total
---------------------------------------------------------------
Pair    | 0.026479   | 0.026479   | 0.026479   |   0.0 | 76.82
Bond    | 0.0066904  | 0.0066904  | 0.0066904  |   0.0 | 19.41
Neigh   | 0          | 0          | 0          |   0.0 |  0.00
Comm    | 0.00071924 | 0.00071924 | 0.00071924 |   0.0 |  2.09
Output  | 0          | 0          | 0          |   0.0 |  0.00
Modify  | 0          | 0          | 0          |   0.0 |  0.00
Other   |            | 0.0005794  |            |       |  1.68

Nlocal:            386 ave         386 max         386 min
Histogram: 1 0 0 0 0 0 0 0 0 0
Nghost:           2292 ave        2292 max        2292 min
Histogram: 1 0 0 0 0 0 0 0 0 0
Neighs:          24557 ave       24557 max       24557 min
Histogram: 1 0 0 0 0 0 0 0 0 0

Total # of neighbors = 24557
Ave neighs/atom = 63.619171
Ave special neighs/atom = 6.1761658
Neighbor list builds = 0
Dangerous builds = 0

# Obtain new stress tensor

variable tmp equal pe
variable e1 equal ${tmp}
variable e1 equal 165.393274991416
variable tmp equal press
variable p1 equal ${tmp}
variable p1 equal -1531.40644688847
variable tmp equal pxx
variable pxx1 equal ${tmp}
variable pxx1 equal -3635.68563594759
variable tmp equal pyy
variable pyy1 equal ${tmp}
variable pyy1 equal -4048.77317965831
variable tmp equal pzz
variable pzz1 equal ${tmp}
variable pzz1 equal 3090.23947494047
variable tmp equal pxy
variable pxy1 equal ${tmp}
variable pxy1 equal -577.984878157272
variable tmp equal pxz
variable pxz1 equal ${tmp}
variable pxz1 equal -1902.40938054751
variable tmp equal pyz
variable pyz1 equal ${tmp}
variable pyz1 equal -524.094026385544

# Compute elastic constant from pressure tensor

variable C1pos equal ${d1}
variable C1pos equal 34.3248982988662
variable C2pos equal ${d2}
variable C2pos equal 39.7477922189979
variable C3pos equal ${d3}
variable C3pos equal 3.4285727115833
variable C4pos equal ${d4}
variable C4pos equal -5.96359638457428
variable C5pos equal ${d5}
variable C5pos equal 15.5811286402607
variable C6pos equal ${d6}
variable C6pos equal 9.82819707713166

# Combine positive and negative

variable C1${dir} equal 0.5*(${C1neg}+${C1pos})
variable C15 equal 0.5*(${C1neg}+${C1pos})
variable C15 equal 0.5*(-42.5841910205892+${C1pos})
variable C15 equal 0.5*(-42.5841910205892+34.3248982988662)
variable C2${dir} equal 0.5*(${C2neg}+${C2pos})
variable C25 equal 0.5*(${C2neg}+${C2pos})
variable C25 equal 0.5*(-52.9358698359882+${C2pos})
variable C25 equal 0.5*(-52.9358698359882+39.7477922189979)
variable C3${dir} equal 0.5*(${C3neg}+${C3pos})
variable C35 equal 0.5*(${C3neg}+${C3pos})
variable C35 equal 0.5*(-5.4097630945308+${C3pos})
variable C35 equal 0.5*(-5.4097630945308+3.4285727115833)
variable C4${dir} equal 0.5*(${C4neg}+${C4pos})
variable C45 equal 0.5*(${C4neg}+${C4pos})
variable C45 equal 0.5*(10.5735197094937+${C4pos})
variable C45 equal 0.5*(10.5735197094937+-5.96359638457428)
variable C5${dir} equal 0.5*(${C5neg}+${C5pos})
variable C55 equal 0.5*(${C5neg}+${C5pos})
variable C55 equal 0.5*(25.12774312348+${C5pos})
variable C55 equal 0.5*(25.12774312348+15.5811286402607)
variable C6${dir} equal 0.5*(${C6neg}+${C6pos})
variable C65 equal 0.5*(${C6neg}+${C6pos})
variable C65 equal 0.5*(-9.13136252919713+${C6pos})
variable C65 equal 0.5*(-9.13136252919713+9.82819707713166)

# Delete dir to make sure it is not reused

variable dir delete

# uxy Perturbation

variable dir equal 6
include ./input/displace_333U-50C-48-vasp.mod
if "${dir} == 1" then    "variable len0 equal ${lx0}"
if "${dir} == 2" then    "variable len0 equal ${ly0}"
if "${dir} == 3" then    "variable len0 equal ${lz0}"
if "${dir} == 4" then    "variable len0 equal ${lz0}"
if "${dir} == 5" then    "variable len0 equal ${lz0}"
if "${dir} == 6" then    "variable len0 equal ${ly0}"
variable len0 equal ${ly0}
variable len0 equal 13.779386336002

# Reset box and simulation parameters

clear
OMP_NUM_THREADS environment is not set. Defaulting to 1 thread.
  using 1 OpenMP thread(s) per MPI task
box tilt large

The 'box' command has been removed and will be ignored

read_restart restart_333U-50C-48-vasp.equil
Reading restart file ...
  restart file = 10 Sep 2025, LAMMPS = 10 Sep 2025
  restoring atom style full from restart
  triclinic box = (-0.1215658 -0.095187668 -0.15010269) to (16.843795 13.684199 17.466231) with tilt (-7.4493154 -0.31246888 -0.018300871)
WARNING: Triclinic box skew is large. LAMMPS will run inefficiently. (src/domain.cpp:221)
  1 by 1 by 1 MPI processor grid
  restoring pair style lj/cut from restart
  restoring bond style harmonic from restart
  restoring angle style hybrid from restart
  restoring dihedral style harmonic from restart
  386 atoms
  411 bonds
  781 angles
  987 dihedrals
Finding 1-2 1-3 1-4 neighbors ...
  special bond factors lj:    0        0        1       
  special bond factors coul:  0        0        1       
     4 = max # of 1-2 neighbors
     8 = max # of 1-3 neighbors
    12 = max # of special neighbors
  special bonds CPU = 0.000 seconds
  read_restart CPU = 0.001 seconds
include ./input/angles_333U-50C-48-vasp.mod
angle_style hybrid fourier cosine/periodic
angle_coeff 1 fourier 58.020602        0.343737        0.374972        0.281246
angle_coeff 2 fourier 83.380072        0.343737        0.374972        0.281246
angle_coeff 3 fourier 157.882480        0.343737        0.374972        0.281246
angle_coeff 4 fourier 221.735285        0.343737        0.374972        0.281246
angle_coeff 5 fourier 114.246973        0.343737        0.374972        0.281246
angle_coeff 6 fourier 32.417871        0.343737        0.374972        0.281246
angle_coeff 7 fourier 90.420412        0.343737        0.374972        0.281246
angle_coeff 8 fourier 75.498766        0.343737        0.374972        0.281246
angle_coeff 9 cosine/periodic 88.853997              -1               3

# Negative deformation

variable delta equal -${up}*${len0}
variable delta equal -0.02*${len0}
variable delta equal -0.02*13.779386336002
variable deltaxy equal -${up}*xy
variable deltaxy equal -0.02*xy
variable deltaxz equal -${up}*xz
variable deltaxz equal -0.02*xz
variable deltayz equal -${up}*yz
variable deltayz equal -0.02*yz
if "${dir} == 1" then    "change_box all x delta 0 ${delta} xy delta ${deltaxy} xz delta ${deltaxz} remap units box"
if "${dir} == 2" then    "change_box all y delta 0 ${delta} yz delta ${deltayz} remap units box"
if "${dir} == 3" then    "change_box all z delta 0 ${delta} remap units box"
if "${dir} == 4" then    "change_box all yz delta ${delta} remap units box"
if "${dir} == 5" then    "change_box all xz delta ${delta} remap units box"
if "${dir} == 6" then    "change_box all xy delta ${delta} remap units box"
change_box all xy delta ${delta} remap units box
change_box all xy delta -0.27558772672004 remap units box
Changing box ...
WARNING: Triclinic box skew is large. LAMMPS will run inefficiently. (src/domain.cpp:221)
  triclinic box = (-0.1215658 -0.095187668 -0.15010269) to (16.843795 13.684199 17.466231) with tilt (-7.7249031 -0.31246888 -0.018300871)

# Relax atoms positions

minimize ${etol} ${ftol} ${maxiter} ${maxeval}
minimize 0 ${ftol} ${maxiter} ${maxeval}
minimize 0 1e-10 ${maxiter} ${maxeval}
minimize 0 1e-10 100000 ${maxeval}
minimize 0 1e-10 100000 100000
Generated 6 of 6 mixed pair_coeff terms from arithmetic mixing rule
Neighbor list info ...
  update: every = 1 steps, delay = 0 steps, check = yes
  max neighbors/atom: 2000, page size: 100000
  master list distance cutoff = 7
  ghost atom cutoff = 7
  binsize = 3.5, bins = 8 4 6
  1 neighbor lists, perpetual/occasional/extra = 1 0 0
  (1) pair lj/cut, perpetual
      attributes: half, newton on
      pair build: half/bin/newton/tri
      stencil: half/bin/3d/tri
      bin: standard
WARNING: Inconsistent image flags
For more information see https://docs.lammps.org/err0027 (src/domain.cpp:1052)
Per MPI rank memory allocation (min/avg/max) = 17.52 | 17.52 | 17.52 Mbytes
   Step          Temp          E_pair         E_mol          TotEng         Press     
    250417   304.57334     -426.30964      711.00276      634.22509      3135.609     
    250484   304.57334     -452.63131      615.39996      512.30063     -3062.656     
Loop time of 0.0557795 on 1 procs for 67 steps with 386 atoms

100.0% CPU use with 1 MPI tasks x 1 OpenMP threads

Minimization stats:
  Stopping criterion = linesearch alpha is zero
  Energy initial, next-to-last, final = 
      284.693111194562    162.76865071758    162.76865071758
  Force two-norm initial, final = 185.21163 8.8095762
  Force max component initial, final = 17.859143 1.2499828
  Final line search alpha, max atom move = 1.224752e-10 1.530919e-10
  Iterations, force evaluations = 67 189

MPI task timing breakdown:
Section |  min time  |  avg time  |  max time  |%varavg| %total
---------------------------------------------------------------
Pair    | 0.040656   | 0.040656   | 0.040656   |   0.0 | 72.89
Bond    | 0.010096   | 0.010096   | 0.010096   |   0.0 | 18.10
Neigh   | 0.0028981  | 0.0028981  | 0.0028981  |   0.0 |  5.20
Comm    | 0.0011827  | 0.0011827  | 0.0011827  |   0.0 |  2.12
Output  | 0          | 0          | 0          |   0.0 |  0.00
Modify  | 0          | 0          | 0          |   0.0 |  0.00
Other   |            | 0.0009466  |            |       |  1.70

Nlocal:            386 ave         386 max         386 min
Histogram: 1 0 0 0 0 0 0 0 0 0
Nghost:           2278 ave        2278 max        2278 min
Histogram: 1 0 0 0 0 0 0 0 0 0
Neighs:          24560 ave       24560 max       24560 min
Histogram: 1 0 0 0 0 0 0 0 0 0

Total # of neighbors = 24560
Ave neighs/atom = 63.626943
Ave special neighs/atom = 6.1761658
Neighbor list builds = 1
Dangerous builds = 0

# Obtain new stress tensor

variable tmp equal pxx
variable pxx1 equal ${tmp}
variable pxx1 equal -4370.62221188024
variable tmp equal pyy
variable pyy1 equal ${tmp}
variable pyy1 equal -6892.92482943546
variable tmp equal pzz
variable pzz1 equal ${tmp}
variable pzz1 equal 2075.57894583344
variable tmp equal pxy
variable pxy1 equal ${tmp}
variable pxy1 equal 4265.29587453238
variable tmp equal pxz
variable pxz1 equal ${tmp}
variable pxz1 equal 2200.22324906419
variable tmp equal pyz
variable pyz1 equal ${tmp}
variable pyz1 equal 174.081499392204

# Compute elastic constant from pressure tensor

variable C1neg equal ${d1}
variable C1neg equal -37.9995811785295
variable C2neg equal ${d2}
variable C2neg equal -53.9685504678837
variable C3neg equal ${d3}
variable C3neg equal -8.50187535711845
variable C4neg equal ${d4}
variable C4neg equal 9.45447401346302
variable C5neg equal ${d5}
variable C5neg equal 4.9320345077978
variable C6neg equal ${d6}
variable C6neg equal 14.3882066863166

# Reset box and simulation parameters

clear
OMP_NUM_THREADS environment is not set. Defaulting to 1 thread.
  using 1 OpenMP thread(s) per MPI task
box tilt large

The 'box' command has been removed and will be ignored

read_restart restart_333U-50C-48-vasp.equil
Reading restart file ...
  restart file = 10 Sep 2025, LAMMPS = 10 Sep 2025
  restoring atom style full from restart
  triclinic box = (-0.1215658 -0.095187668 -0.15010269) to (16.843795 13.684199 17.466231) with tilt (-7.4493154 -0.31246888 -0.018300871)
WARNING: Triclinic box skew is large. LAMMPS will run inefficiently. (src/domain.cpp:221)
  1 by 1 by 1 MPI processor grid
  restoring pair style lj/cut from restart
  restoring bond style harmonic from restart
  restoring angle style hybrid from restart
  restoring dihedral style harmonic from restart
  386 atoms
  411 bonds
  781 angles
  987 dihedrals
Finding 1-2 1-3 1-4 neighbors ...
  special bond factors lj:    0        0        1       
  special bond factors coul:  0        0        1       
     4 = max # of 1-2 neighbors
     8 = max # of 1-3 neighbors
    12 = max # of special neighbors
  special bonds CPU = 0.000 seconds
  read_restart CPU = 0.001 seconds
include ./input/angles_333U-50C-48-vasp.mod
angle_style hybrid fourier cosine/periodic
angle_coeff 1 fourier 58.020602        0.343737        0.374972        0.281246
angle_coeff 2 fourier 83.380072        0.343737        0.374972        0.281246
angle_coeff 3 fourier 157.882480        0.343737        0.374972        0.281246
angle_coeff 4 fourier 221.735285        0.343737        0.374972        0.281246
angle_coeff 5 fourier 114.246973        0.343737        0.374972        0.281246
angle_coeff 6 fourier 32.417871        0.343737        0.374972        0.281246
angle_coeff 7 fourier 90.420412        0.343737        0.374972        0.281246
angle_coeff 8 fourier 75.498766        0.343737        0.374972        0.281246
angle_coeff 9 cosine/periodic 88.853997              -1               3

# Positive deformation

variable delta equal ${up}*${len0}
variable delta equal 0.02*${len0}
variable delta equal 0.02*13.779386336002
variable deltaxy equal ${up}*xy
variable deltaxy equal 0.02*xy
variable deltaxz equal ${up}*xz
variable deltaxz equal 0.02*xz
variable deltayz equal ${up}*yz
variable deltayz equal 0.02*yz
if "${dir} == 1" then    "change_box all x delta 0 ${delta} xy delta ${deltaxy} xz delta ${deltaxz} remap units box"
if "${dir} == 2" then    "change_box all y delta 0 ${delta} yz delta ${deltayz} remap units box"
if "${dir} == 3" then    "change_box all z delta 0 ${delta} remap units box"
if "${dir} == 4" then    "change_box all yz delta ${delta} remap units box"
if "${dir} == 5" then    "change_box all xz delta ${delta} remap units box"
if "${dir} == 6" then    "change_box all xy delta ${delta} remap units box"
change_box all xy delta ${delta} remap units box
change_box all xy delta 0.27558772672004 remap units box
Changing box ...
WARNING: Triclinic box skew is large. LAMMPS will run inefficiently. (src/domain.cpp:221)
  triclinic box = (-0.1215658 -0.095187668 -0.15010269) to (16.843795 13.684199 17.466231) with tilt (-7.1737277 -0.31246888 -0.018300871)

# Relax atoms positions

minimize ${etol} ${ftol} ${maxiter} ${maxeval}
minimize 0 ${ftol} ${maxiter} ${maxeval}
minimize 0 1e-10 ${maxiter} ${maxeval}
minimize 0 1e-10 100000 ${maxeval}
minimize 0 1e-10 100000 100000
Generated 6 of 6 mixed pair_coeff terms from arithmetic mixing rule
Neighbor list info ...
  update: every = 1 steps, delay = 0 steps, check = yes
  max neighbors/atom: 2000, page size: 100000
  master list distance cutoff = 7
  ghost atom cutoff = 7
  binsize = 3.5, bins = 7 4 6
  1 neighbor lists, perpetual/occasional/extra = 1 0 0
  (1) pair lj/cut, perpetual
      attributes: half, newton on
      pair build: half/bin/newton/tri
      stencil: half/bin/3d/tri
      bin: standard
WARNING: Inconsistent image flags
For more information see https://docs.lammps.org/err0027 (src/domain.cpp:1052)
Per MPI rank memory allocation (min/avg/max) = 17.52 | 17.52 | 17.52 Mbytes
   Step          Temp          E_pair         E_mol          TotEng         Press     
    250417   304.57334     -425.60553      705.09813      629.02459      3744.2612    
    250450   304.57334     -445.16494      613.89186      518.2589      -1643.5342    
Loop time of 0.0338249 on 1 procs for 33 steps with 386 atoms

100.0% CPU use with 1 MPI tasks x 1 OpenMP threads

Minimization stats:
  Stopping criterion = linesearch alpha is zero
  Energy initial, next-to-last, final = 
      279.492602802283   168.726915672365   168.726915672365
  Force two-norm initial, final = 183.98347 20.662011
  Force max component initial, final = 17.272342 3.0870104
  Final line search alpha, max atom move = 1.5914145e-11 4.912713e-11
  Iterations, force evaluations = 33 123

MPI task timing breakdown:
Section |  min time  |  avg time  |  max time  |%varavg| %total
---------------------------------------------------------------
Pair    | 0.026011   | 0.026011   | 0.026011   |   0.0 | 76.90
Bond    | 0.0065438  | 0.0065438  | 0.0065438  |   0.0 | 19.35
Neigh   | 0          | 0          | 0          |   0.0 |  0.00
Comm    | 0.00071423 | 0.00071423 | 0.00071423 |   0.0 |  2.11
Output  | 0          | 0          | 0          |   0.0 |  0.00
Modify  | 0          | 0          | 0          |   0.0 |  0.00
Other   |            | 0.000556   |            |       |  1.64

Nlocal:            386 ave         386 max         386 min
Histogram: 1 0 0 0 0 0 0 0 0 0
Nghost:           2272 ave        2272 max        2272 min
Histogram: 1 0 0 0 0 0 0 0 0 0
Neighs:          24559 ave       24559 max       24559 min
Histogram: 1 0 0 0 0 0 0 0 0 0

Total # of neighbors = 24559
Ave neighs/atom = 63.624352
Ave special neighs/atom = 6.1761658
Neighbor list builds = 0
Dangerous builds = 0

# Obtain new stress tensor

variable tmp equal pe
variable e1 equal ${tmp}
variable e1 equal 168.726915672365
variable tmp equal press
variable p1 equal ${tmp}
variable p1 equal -1643.53418478897
variable tmp equal pxx
variable pxx1 equal ${tmp}
variable pxx1 equal -4535.23209832475
variable tmp equal pyy
variable pyy1 equal ${tmp}
variable pyy1 equal -3453.68897179637
variable tmp equal pzz
variable pzz1 equal ${tmp}
variable pzz1 equal 3058.3185157542
variable tmp equal pxy
variable pxy1 equal ${tmp}
variable pxy1 equal -5422.75771221609
variable tmp equal pxz
variable pxz1 equal ${tmp}
variable pxz1 equal 2328.10046896043
variable tmp equal pyz
variable pyz1 equal ${tmp}
variable pyz1 equal -180.49770057439

# Compute elastic constant from pressure tensor

variable C1pos equal ${d1}
variable C1pos equal 38.822630610752
variable C2pos equal ${d2}
variable C2pos equal 36.7723711796882
variable C3pos equal ${d3}
variable C3pos equal 3.58817750751465
variable C4pos equal ${d4}
variable C4pos equal -7.68157801363005
variable C5pos equal ${d5}
variable C5pos equal -5.571420607279
variable C6pos equal ${d6}
variable C6pos equal 34.0520612474257

# Combine positive and negative

variable C1${dir} equal 0.5*(${C1neg}+${C1pos})
variable C16 equal 0.5*(${C1neg}+${C1pos})
variable C16 equal 0.5*(-37.9995811785295+${C1pos})
variable C16 equal 0.5*(-37.9995811785295+38.822630610752)
variable C2${dir} equal 0.5*(${C2neg}+${C2pos})
variable C26 equal 0.5*(${C2neg}+${C2pos})
variable C26 equal 0.5*(-53.9685504678837+${C2pos})
variable C26 equal 0.5*(-53.9685504678837+36.7723711796882)
variable C3${dir} equal 0.5*(${C3neg}+${C3pos})
variable C36 equal 0.5*(${C3neg}+${C3pos})
variable C36 equal 0.5*(-8.50187535711845+${C3pos})
variable C36 equal 0.5*(-8.50187535711845+3.58817750751465)
variable C4${dir} equal 0.5*(${C4neg}+${C4pos})
variable C46 equal 0.5*(${C4neg}+${C4pos})
variable C46 equal 0.5*(9.45447401346302+${C4pos})
variable C46 equal 0.5*(9.45447401346302+-7.68157801363005)
variable C5${dir} equal 0.5*(${C5neg}+${C5pos})
variable C56 equal 0.5*(${C5neg}+${C5pos})
variable C56 equal 0.5*(4.9320345077978+${C5pos})
variable C56 equal 0.5*(4.9320345077978+-5.571420607279)
variable C6${dir} equal 0.5*(${C6neg}+${C6pos})
variable C66 equal 0.5*(${C6neg}+${C6pos})
variable C66 equal 0.5*(14.3882066863166+${C6pos})
variable C66 equal 0.5*(14.3882066863166+34.0520612474257)

# Delete dir to make sure it is not reused

variable dir delete

# Output final values

variable C11all equal ${C11}
variable C11all equal 57.762848110402
variable C22all equal ${C22}
variable C22all equal 71.1863863692169
variable C33all equal ${C33}
variable C33all equal 65.8989176049809

variable C12all equal 0.5*(${C12}+${C21})
variable C12all equal 0.5*(26.6804673464506+${C21})
variable C12all equal 0.5*(26.6804673464506+21.3023961294503)
variable C13all equal 0.5*(${C13}+${C31})
variable C13all equal 0.5*(29.8653194828835+${C31})
variable C13all equal 0.5*(29.8653194828835+29.1065776062744)
variable C23all equal 0.5*(${C23}+${C32})
variable C23all equal 0.5*(28.8283056482723+${C32})
variable C23all equal 0.5*(28.8283056482723+26.8249176868284)

variable C44all equal ${C44}
variable C44all equal 20.4247062020007
variable C55all equal ${C55}
variable C55all equal 20.3544358818703
variable C66all equal ${C66}
variable C66all equal 24.2201339668711

variable C14all equal 0.5*(${C14}+${C41})
variable C14all equal 0.5*(-0.677791566016399+${C41})
variable C14all equal 0.5*(-0.677791566016399+-2.38004987961569)
variable C15all equal 0.5*(${C15}+${C51})
variable C15all equal 0.5*(-4.1296463608615+${C51})
variable C15all equal 0.5*(-4.1296463608615+-3.45767908359385)
variable C16all equal 0.5*(${C16}+${C61})
variable C16all equal 0.5*(0.411524716111249+${C61})
variable C16all equal 0.5*(0.411524716111249+-0.766256847823334)

variable C24all equal 0.5*(${C24}+${C42})
variable C24all equal 0.5*(1.4209434543242+${C42})
variable C24all equal 0.5*(1.4209434543242+-4.07213635647263)
variable C25all equal 0.5*(${C25}+${C52})
variable C25all equal 0.5*(-6.59403880849515+${C52})
variable C25all equal 0.5*(-6.59403880849515+-1.777526961359)
variable C26all equal 0.5*(${C26}+${C62})
variable C26all equal 0.5*(-8.59808964409775+${C62})
variable C26all equal 0.5*(-8.59808964409775+-3.05420459387549)

variable C34all equal 0.5*(${C34}+${C43})
variable C34all equal 0.5*(0.525630930097275+${C43})
variable C34all equal 0.5*(0.525630930097275+-2.87668510808544)
variable C35all equal 0.5*(${C35}+${C53})
variable C35all equal 0.5*(-0.99059519147375+${C53})
variable C35all equal 0.5*(-0.99059519147375+-0.2107234572931)
variable C36all equal 0.5*(${C36}+${C63})
variable C36all equal 0.5*(-2.4568489248019+${C63})
variable C36all equal 0.5*(-2.4568489248019+-2.10124401505897)

variable C45all equal 0.5*(${C45}+${C54})
variable C45all equal 0.5*(2.30496166245971+${C54})
variable C45all equal 0.5*(2.30496166245971+0.63320277893955)
variable C46all equal 0.5*(${C46}+${C64})
variable C46all equal 0.5*(0.886447999916485+${C64})
variable C46all equal 0.5*(0.886447999916485+-0.71467634273007)
variable C56all equal 0.5*(${C56}+${C65})
variable C56all equal 0.5*(-0.3196930497406+${C65})
variable C56all equal 0.5*(-0.3196930497406+0.348417273967265)

# Average moduli for cubic crystals

variable C11cubic equal (${C11all}+${C22all}+${C33all})/3.0
variable C11cubic equal (57.762848110402+${C22all}+${C33all})/3.0
variable C11cubic equal (57.762848110402+71.1863863692169+${C33all})/3.0
variable C11cubic equal (57.762848110402+71.1863863692169+65.8989176049809)/3.0
variable C12cubic equal (${C12all}+${C13all}+${C23all})/3.0
variable C12cubic equal (23.9914317379504+${C13all}+${C23all})/3.0
variable C12cubic equal (23.9914317379504+29.4859485445789+${C23all})/3.0
variable C12cubic equal (23.9914317379504+29.4859485445789+27.8266116675503)/3.0
variable C44cubic equal (${C44all}+${C55all}+${C66all})/3.0
variable C44cubic equal (20.4247062020007+${C55all}+${C66all})/3.0
variable C44cubic equal (20.4247062020007+20.3544358818703+${C66all})/3.0
variable C44cubic equal (20.4247062020007+20.3544358818703+24.2201339668711)/3.0

variable bulkmodulus equal (${C11cubic}+2*${C12cubic})/3.0
variable bulkmodulus equal (64.9493840281999+2*${C12cubic})/3.0
variable bulkmodulus equal (64.9493840281999+2*27.1013306500265)/3.0
variable shearmodulus1 equal ${C44cubic}
variable shearmodulus1 equal 21.6664253502474
variable shearmodulus2 equal (${C11cubic}-${C12cubic})/2.0
variable shearmodulus2 equal (64.9493840281999-${C12cubic})/2.0
variable shearmodulus2 equal (64.9493840281999-27.1013306500265)/2.0
variable poissonratio equal 1.0/(1.0+${C11cubic}/${C12cubic})
variable poissonratio equal 1.0/(1.0+64.9493840281999/${C12cubic})
variable poissonratio equal 1.0/(1.0+64.9493840281999/27.1013306500265)

print "Elastic Constant 1 1 = ${C11all}"
Elastic Constant 1 1 = 57.762848110402
print "Elastic Constant 2 2 = ${C22all}"
Elastic Constant 2 2 = 71.1863863692169
print "Elastic Constant 3 3 = ${C33all}"
Elastic Constant 3 3 = 65.8989176049809

print "Elastic Constant 1 2 = ${C12all}"
Elastic Constant 1 2 = 23.9914317379504
print "Elastic Constant 1 3 = ${C13all}"
Elastic Constant 1 3 = 29.4859485445789
print "Elastic Constant 2 3 = ${C23all}"
Elastic Constant 2 3 = 27.8266116675503

print "Elastic Constant 4 4 = ${C44all}"
Elastic Constant 4 4 = 20.4247062020007
print "Elastic Constant 5 5 = ${C55all}"
Elastic Constant 5 5 = 20.3544358818703
print "Elastic Constant 6 6 = ${C66all}"
Elastic Constant 6 6 = 24.2201339668711

print "Elastic Constant 1 4 = ${C14all}"
Elastic Constant 1 4 = -1.52892072281604
print "Elastic Constant 1 5 = ${C15all}"
Elastic Constant 1 5 = -3.79366272222767
print "Elastic Constant 1 6 = ${C16all}"
Elastic Constant 1 6 = -0.177366065856043

print "Elastic Constant 2 4 = ${C24all}"
Elastic Constant 2 4 = -1.32559645107421
print "Elastic Constant 2 5 = ${C25all}"
Elastic Constant 2 5 = -4.18578288492708
print "Elastic Constant 2 6 = ${C26all}"
Elastic Constant 2 6 = -5.82614711898662

print "Elastic Constant 3 4 = ${C34all}"
Elastic Constant 3 4 = -1.17552708899408
print "Elastic Constant 3 5 = ${C35all}"
Elastic Constant 3 5 = -0.600659324383425
print "Elastic Constant 3 6 = ${C36all}"
Elastic Constant 3 6 = -2.27904646993044

print "Elastic Constant 4 5 = ${C45all}"
Elastic Constant 4 5 = 1.46908222069963
print "Elastic Constant 4 6 = ${C46all}"
Elastic Constant 4 6 = 0.0858858285932075
print "Elastic Constant 5 6 = ${C56all}"
Elastic Constant 5 6 = 0.0143621121133325

print "Bulk Modulus = ${bulkmodulus} ${cunits}"
Bulk Modulus = 39.717348442751 GPa
print "Shear Modulus 1 = ${shearmodulus1} ${cunits}"
Shear Modulus 1 = 21.6664253502474 GPa
print "Shear Modulus 2 = ${shearmodulus2} ${cunits}"
Shear Modulus 2 = 18.9240266890867 GPa
print "Poisson Ratio = ${poissonratio}"
Poisson Ratio = 0.294417384425121

variable rho equal density
print "density (g/cm^3) = ${rho}"
density (g/cm^3) = 1.64494721118817
Total wall time: 0:01:09
