units           real
atom_style      full
boundary        p p p

pair_style      lj/cut 5.000
bond_style      harmonic
angle_style     hybrid fourier cosine/periodic
dihedral_style  harmonic

pair_modify     tail yes mix arithmetic
special_bonds   lj/coul 0.0 0.0 1.0
dielectric      1.0
box tilt        large

The 'box' command has been removed and will be ignored

read_data       ./dat/data.333U-50C-1-vasp
Reading data file ...
  triclinic box = (0 0 0) to (17.141708 12.825146 17.586657) with tilt (-8.381958 0.030516 0.302718)
WARNING: Triclinic box skew is large. LAMMPS will run inefficiently. (src/domain.cpp:221)
  1 by 1 by 1 MPI processor grid
  reading atoms ...
  362 atoms
  scanning bonds ...
  4 = max bonds/atom
  scanning angles ...
  6 = max angles/atom
  scanning dihedrals ...
  24 = max dihedrals/atom
  triclinic box = (0 0 0) to (17.141708 12.825146 17.586657) with tilt (-8.381958 0.030516 0.302718)
WARNING: Triclinic box skew is large. LAMMPS will run inefficiently. (src/domain.cpp:221)
  1 by 1 by 1 MPI processor grid
  reading bonds ...
  387 bonds
  reading angles ...
  733 angles
  reading dihedrals ...
  915 dihedrals
Finding 1-2 1-3 1-4 neighbors ...
  special bond factors lj:    0        0        1       
  special bond factors coul:  0        0        1       
     4 = max # of 1-2 neighbors
     8 = max # of 1-3 neighbors
    12 = max # of special neighbors
  special bonds CPU = 0.000 seconds
  read_data CPU = 0.008 seconds

#### Atom Groupings ####
group           fram     id   1:362
362 atoms in group fram
#### END Atom Groupings ####

compute am all property/atom mass
dump        atom_pos all extxyz 100 ./output/333U-50C-1-vasp.lammpstrj
dump_modify atom_pos element Si C H O mass yes
thermo          1000
thermo_style    custom step temp pe ke etotal press vol density

variable up equal 2e-2
variable cfac equal 1.0e-4
variable cunits string GPa

# Define minimization parameters
variable etol equal 0.0
variable ftol equal 1.0e-10
variable maxiter equal 100000
variable maxeval equal 100000
variable dmax equal 1.0e-2

variable temp equal 300.0
variable thermal_damp index 100.0
variable pressure_damp index 500.0

fix relax all box/relax aniso 0.0 vmax 0.001
unfix relax
minimize ${etol} ${ftol} ${maxiter} ${maxeval}
minimize 0 ${ftol} ${maxiter} ${maxeval}
minimize 0 1e-10 ${maxiter} ${maxeval}
minimize 0 1e-10 100000 ${maxeval}
minimize 0 1e-10 100000 100000
Generated 6 of 6 mixed pair_coeff terms from arithmetic mixing rule
Neighbor list info ...
  update: every = 1 steps, delay = 0 steps, check = yes
  max neighbors/atom: 2000, page size: 100000
  master list distance cutoff = 7
  ghost atom cutoff = 7
  binsize = 3.5, bins = 8 4 6
  1 neighbor lists, perpetual/occasional/extra = 1 0 0
  (1) pair lj/cut, perpetual
      attributes: half, newton on
      pair build: half/bin/newton/tri
      stencil: half/bin/3d/tri
      bin: standard
WARNING: Inconsistent image flags
For more information see https://docs.lammps.org/err0027 (src/domain.cpp:1052)
Per MPI rank memory allocation (min/avg/max) = 17.52 | 17.52 | 17.52 Mbytes
   Step          Temp          PotEng         KinEng         TotEng         Press          Volume        Density    
         0   0              1448.4416      0              1448.4416      98400.206      3866.337       1.7039137    
        85   0              123.34189      0              123.34189      9943.1396      3866.337       1.7039137    
Loop time of 0.0459284 on 1 procs for 85 steps with 362 atoms

100.0% CPU use with 1 MPI tasks x 1 OpenMP threads

Minimization stats:
  Stopping criterion = linesearch alpha is zero
  Energy initial, next-to-last, final = 
      1448.44158742362   123.341888102568   123.341888102568
  Force two-norm initial, final = 879.33652 18.39808
  Force max component initial, final = 92.471648 2.2949082
  Final line search alpha, max atom move = 2.665007e-11 6.1159464e-11
  Iterations, force evaluations = 85 221

MPI task timing breakdown:
Section |  min time  |  avg time  |  max time  |%varavg| %total
---------------------------------------------------------------
Pair    | 0.031838   | 0.031838   | 0.031838   |   0.0 | 69.32
Bond    | 0.0079428  | 0.0079428  | 0.0079428  |   0.0 | 17.29
Neigh   | 0.0038808  | 0.0038808  | 0.0038808  |   0.0 |  8.45
Comm    | 0.0010585  | 0.0010585  | 0.0010585  |   0.0 |  2.30
Output  | 0          | 0          | 0          |   0.0 |  0.00
Modify  | 0          | 0          | 0          |   0.0 |  0.00
Other   |            | 0.001209   |            |       |  2.63

Nlocal:            362 ave         362 max         362 min
Histogram: 1 0 0 0 0 0 0 0 0 0
Nghost:           2332 ave        2332 max        2332 min
Histogram: 1 0 0 0 0 0 0 0 0 0
Neighs:          22998 ave       22998 max       22998 min
Histogram: 1 0 0 0 0 0 0 0 0 0

Total # of neighbors = 22998
Ave neighs/atom = 63.530387
Ave special neighs/atom = 6.1878453
Neighbor list builds = 2
Dangerous builds = 0

# Generating the full routine as described in the paper for UFF
fix nvt_relax   all nvt temp 300 300 ${thermal_damp}
fix nvt_relax   all nvt temp 300 300 100.0
run 100000      # 100 picoseconds
Generated 6 of 6 mixed pair_coeff terms from arithmetic mixing rule
WARNING: Inconsistent image flags
For more information see https://docs.lammps.org/err0027 (src/domain.cpp:1052)
Per MPI rank memory allocation (min/avg/max) = 17.46 | 17.46 | 17.46 Mbytes
   Step          Temp          PotEng         KinEng         TotEng         Press          Volume        Density    
        85   0              123.34189      0              123.34189      9943.1396      3866.337       1.7039137    
      1000   152.98749      251.71946      164.62562      416.34508      13780.95       3866.337       1.7039137    
      2000   327.06447      415.16792      351.94506      767.11298      23742.306      3866.337       1.7039137    
      3000   284.79944      373.81986      306.46482      680.28469      19744.113      3866.337       1.7039137    
      4000   316.57807      389.33233      340.66093      729.99327      25203.262      3866.337       1.7039137    
      5000   303.73716      377.25508      326.84319      704.09827      28196.328      3866.337       1.7039137    
      6000   299.64055      375.49565      322.43494      697.93059      21433.095      3866.337       1.7039137    
      7000   317.47943      392.62139      341.63086      734.25225      20849.762      3866.337       1.7039137    
      8000   281.82256      386.80425      303.26148      690.06574      25062.091      3866.337       1.7039137    
      9000   292.55642      405.1797       314.8119       719.9916       21028.48       3866.337       1.7039137    
     10000   308.20379      362.18201      331.6496       693.83161      18969.415      3866.337       1.7039137    
     11000   287.9265       391.616        309.82977      701.44577      19676.023      3866.337       1.7039137    
     12000   315.73903      407.17936      339.75807      746.93743      22457.355      3866.337       1.7039137    
     13000   283.30603      396.37909      304.85781      701.2369       18059.488      3866.337       1.7039137    
     14000   299.44813      396.64881      322.22788      718.87669      26116.527      3866.337       1.7039137    
     15000   299.22997      389.96777      321.99312      711.96089      20381.856      3866.337       1.7039137    
     16000   301.84681      402.61269      324.80903      727.42171      22879.273      3866.337       1.7039137    
     17000   287.65033      401.35786      309.53259      710.89045      20593.419      3866.337       1.7039137    
     18000   313.29226      395.10089      337.12516      732.22605      22794.079      3866.337       1.7039137    
     19000   282.88762      378.59363      304.40756      683.00119      23158.688      3866.337       1.7039137    
     20000   293.8203       400.82604      316.17193      716.99797      23052.382      3866.337       1.7039137    
     21000   280.60925      391.97959      301.95588      693.93547      26628.731      3866.337       1.7039137    
     22000   300.76413      408.99556      323.64399      732.63955      20387.602      3866.337       1.7039137    
     23000   279.81957      381.53144      301.10612      682.63756      18231.303      3866.337       1.7039137    
     24000   296.0184       384.44336      318.53724      702.9806       26533.95       3866.337       1.7039137    
     25000   298.55975      411.14567      321.27191      732.41759      23238.324      3866.337       1.7039137    
     26000   313.59505      389.72934      337.45098      727.18033      26742.437      3866.337       1.7039137    
     27000   302.10977      378.47297      325.09199      703.56496      21985.257      3866.337       1.7039137    
     28000   303.75558      390.38951      326.86301      717.25252      28185.418      3866.337       1.7039137    
     29000   299.99054      401.79863      322.81155      724.61019      20816.362      3866.337       1.7039137    
     30000   293.65832      418.16728      315.99762      734.1649       21513.223      3866.337       1.7039137    
     31000   299.31612      395.546        322.08582      717.63182      17544.237      3866.337       1.7039137    
     32000   277.67748      384.49684      298.80108      683.29792      28608.778      3866.337       1.7039137    
     33000   316.19071      390.7733       340.24411      731.01741      23687.294      3866.337       1.7039137    
     34000   309.10712      416.34771      332.62165      748.96936      16855.127      3866.337       1.7039137    
     35000   309.10239      380.12947      332.61656      712.74602      24389.362      3866.337       1.7039137    
     36000   312.12002      441.75261      335.86375      777.61636      24987.269      3866.337       1.7039137    
     37000   286.4621       380.4721       308.25396      688.72607      19250.431      3866.337       1.7039137    
     38000   307.30198      405.70922      330.67919      736.3884       18485.247      3866.337       1.7039137    
     39000   283.96259      415.22615      305.56431      720.79047      17569.879      3866.337       1.7039137    
     40000   292.30098      375.36998      314.53702      689.907        22265.956      3866.337       1.7039137    
     41000   328.84099      387.86857      353.85673      741.7253       23108.553      3866.337       1.7039137    
     42000   292.4645       387.74636      314.71299      702.45935      20646.297      3866.337       1.7039137    
     43000   303.92346      380.07129      327.04365      707.11494      25302.396      3866.337       1.7039137    
     44000   301.71204      404.79748      324.66401      729.46148      22527.192      3866.337       1.7039137    
     45000   300.08447      361.68597      322.91262      684.59859      23728.131      3866.337       1.7039137    
     46000   311.99461      396.36963      335.72879      732.09842      26048.328      3866.337       1.7039137    
     47000   294.23944      404.17502      316.62295      720.79797      22331.57       3866.337       1.7039137    
     48000   299.25806      396.30699      322.02335      718.33034      21324.041      3866.337       1.7039137    
     49000   288.66583      385.34151      310.62534      695.96685      17896.092      3866.337       1.7039137    
     50000   304.94745      382.56975      328.14554      710.71529      28374.214      3866.337       1.7039137    
     51000   298.35         365.62749      321.04621      686.6737       20404.925      3866.337       1.7039137    
     52000   318.30061      384.15253      342.51451      726.66704      24094.027      3866.337       1.7039137    
     53000   292.33249      386.57944      314.57093      701.15037      21103.551      3866.337       1.7039137    
     54000   305.79818      400.54536      329.06099      729.60635      30672.342      3866.337       1.7039137    
     55000   305.39739      377.43367      328.62971      706.06339      24745.411      3866.337       1.7039137    
     56000   306.46811      379.97912      329.78189      709.76101      22845.977      3866.337       1.7039137    
     57000   323.59208      409.09604      348.20851      757.30455      18276.15       3866.337       1.7039137    
     58000   308.11356      377.96443      331.55251      709.51694      21874.085      3866.337       1.7039137    
     59000   309.41488      381.08031      332.95282      714.03313      19915.913      3866.337       1.7039137    
     60000   295.91782      408.67248      318.429        727.10149      23895.368      3866.337       1.7039137    
     61000   307.38009      390.22194      330.76324      720.98519      23401.966      3866.337       1.7039137    
     62000   280.7357       375.00704      302.09195      677.09899      23066.909      3866.337       1.7039137    
     63000   295.30734      420.27554      317.77208      738.04762      20268.975      3866.337       1.7039137    
     64000   277.28818      391.06328      298.38217      689.44545      18716.768      3866.337       1.7039137    
     65000   310.37216      402.24053      333.98292      736.22346      19551.218      3866.337       1.7039137    
     66000   310.27864      405.53646      333.88229      739.41875      25896.904      3866.337       1.7039137    
     67000   292.24787      386.46104      314.47987      700.94091      20928.06       3866.337       1.7039137    
     68000   300.07634      392.3448       322.90387      715.24867      25718.398      3866.337       1.7039137    
     69000   300.60939      419.15196      323.47748      742.62944      24024.139      3866.337       1.7039137    
     70000   300.84628      373.52851      323.73239      697.26089      26732.135      3866.337       1.7039137    
     71000   292.17906      425.83212      314.40583      740.23794      29712.94       3866.337       1.7039137    
     72000   292.69754      405.06273      314.96375      720.02648      20633.401      3866.337       1.7039137    
     73000   291.26014      368.592        313.41701      682.009        24090.015      3866.337       1.7039137    
     74000   303.6632       394.13609      326.7636       720.89969      20376.531      3866.337       1.7039137    
     75000   273.62197      380.40408      294.43705      674.84113      22163.723      3866.337       1.7039137    
     76000   296.62621      398.44788      319.19128      717.63916      19440.105      3866.337       1.7039137    
     77000   300.14872      391.71951      322.98176      714.70127      23989.682      3866.337       1.7039137    
     78000   291.90761      418.50152      314.11373      732.61525      25311.759      3866.337       1.7039137    
     79000   302.45765      385.24562      325.46634      710.71196      27415.127      3866.337       1.7039137    
     80000   310.83952      409.9206       334.48583      744.40643      22592.411      3866.337       1.7039137    
     81000   301.69879      390.0501       324.64975      714.69985      23061.679      3866.337       1.7039137    
     82000   308.61878      400.87382      332.09616      732.96998      21865.677      3866.337       1.7039137    
     83000   277.73718      389.01388      298.86532      687.8792       18093.2        3866.337       1.7039137    
     84000   300.24149      426.22936      323.08159      749.31095      21200.516      3866.337       1.7039137    
     85000   309.43838      376.0955       332.97811      709.07361      21575.503      3866.337       1.7039137    
     86000   293.41267      391.60274      315.73329      707.33602      28927.082      3866.337       1.7039137    
     87000   269.83228      423.74037      290.35907      714.09944      23978.238      3866.337       1.7039137    
     88000   284.56192      384.33692      306.20923      690.54616      23962.247      3866.337       1.7039137    
     89000   289.62557      397.87501      311.65809      709.5331       23655.87       3866.337       1.7039137    
     90000   296.44023      397.40425      318.99116      716.3954       19268.709      3866.337       1.7039137    
     91000   285.52688      364.43851      307.2476       671.68611      21484.907      3866.337       1.7039137    
     92000   318.47308      388.01948      342.7001       730.71957      19955.864      3866.337       1.7039137    
     93000   309.39856      354.2431       332.93526      687.17836      21483.741      3866.337       1.7039137    
     94000   301.88248      404.30989      324.84742      729.15731      21825.59       3866.337       1.7039137    
     95000   307.74737      371.52112      331.15846      702.67958      20696.523      3866.337       1.7039137    
     96000   277.00384      398.74768      298.07619      696.82388      23248.543      3866.337       1.7039137    
     97000   313.84448      376.6108       337.71939      714.33018      26630.543      3866.337       1.7039137    
     98000   302.08183      393.47922      325.06193      718.54115      28940.981      3866.337       1.7039137    
     99000   294.29767      390.75778      316.6856       707.44339      21583.919      3866.337       1.7039137    
    100000   309.77844      390.92918      333.34404      724.27322      21254.299      3866.337       1.7039137    
    100085   300.2567       404.04919      323.09796      727.14714      17404.105      3866.337       1.7039137    
WARNING: Bond/angle/dihedral extent > half of periodic box length (src/domain.cpp:1174)
Loop time of 22.953 on 1 procs for 100000 steps with 362 atoms

Performance: 376.422 ns/day, 0.064 hours/ns, 4356.736 timesteps/s, 1.577 Matom-step/s
99.7% CPU use with 1 MPI tasks x 1 OpenMP threads

MPI task timing breakdown:
Section |  min time  |  avg time  |  max time  |%varavg| %total
---------------------------------------------------------------
Pair    | 13.663     | 13.663     | 13.663     |   0.0 | 59.52
Bond    | 3.5355     | 3.5355     | 3.5355     |   0.0 | 15.40
Neigh   | 4.2237     | 4.2237     | 4.2237     |   0.0 | 18.40
Comm    | 0.55123    | 0.55123    | 0.55123    |   0.0 |  2.40
Output  | 0.51241    | 0.51241    | 0.51241    |   0.0 |  2.23
Modify  | 0.33804    | 0.33804    | 0.33804    |   0.0 |  1.47
Other   |            | 0.1294     |            |       |  0.56

Nlocal:            362 ave         362 max         362 min
Histogram: 1 0 0 0 0 0 0 0 0 0
Nghost:           2346 ave        2346 max        2346 min
Histogram: 1 0 0 0 0 0 0 0 0 0
Neighs:          22953 ave       22953 max       22953 min
Histogram: 1 0 0 0 0 0 0 0 0 0

Total # of neighbors = 22953
Ave neighs/atom = 63.406077
Ave special neighs/atom = 6.1878453
Neighbor list builds = 1867
Dangerous builds = 0
unfix           nvt_relax

fix npt_relax   all npt temp 300 300 ${thermal_damp} iso 0 0 ${pressure_damp}
fix npt_relax   all npt temp 300 300 100.0 iso 0 0 ${pressure_damp}
fix npt_relax   all npt temp 300 300 100.0 iso 0 0 500.0
run 100000      # 100 picoseconds
Generated 6 of 6 mixed pair_coeff terms from arithmetic mixing rule
WARNING: Inconsistent image flags
For more information see https://docs.lammps.org/err0027 (src/domain.cpp:1052)
WARNING: Bond/angle/dihedral extent > half of periodic box length (src/domain.cpp:1174)
Per MPI rank memory allocation (min/avg/max) = 17.48 | 17.48 | 17.48 Mbytes
   Step          Temp          PotEng         KinEng         TotEng         Press          Volume        Density    
    100085   300.2567       404.04919      323.09796      727.14714      17404.105      3866.337       1.7039137    
    101000   267.9225       375.59033      288.30401      663.89435      4789.6472      4114.9028      1.6009867    
    102000   294.72976      390.75392      317.15057      707.90449      2093.711       4105.4766      1.6046626    
    103000   297.35742      359.30159      319.97812      679.2797       3761.0801      4087.2642      1.6118128    
    104000   315.80276      409.16805      339.82664      748.99469     -3372.2488      4127.0764      1.5962643    
    105000   299.49145      353.79098      322.27449      676.06547     -7571.5351      4155.8987      1.5851938    
    106000   295.5926       373.77539      318.07904      691.85444     -1310.8567      4132.0277      1.5943515    
    107000   288.33628      351.60825      310.27072      661.87897      312.69085      4102.2614      1.6059203    
    108000   309.14439      377.49276      332.66175      710.15452     -347.62582      4052.7663      1.6255328    
    109000   302.76256      360.17284      325.79444      685.96728      2793.648       4113.5044      1.601531     
    110000   291.01128      359.44429      313.14922      672.59351      3319.0752      4095.9996      1.6083753    
    111000   326.20681      363.95852      351.02215      714.98067     -1569.6471      4141.2951      1.5907837    
    112000   304.21103      342.33434      327.35311      669.68744      2568.4902      4080.5334      1.6144714    
    113000   310.50466      401.76179      334.1255       735.88729      1046.4869      4125.0881      1.5970337    
    114000   295.42623      370.94018      317.90002      688.8402      -123.03788      4121.543       1.5984074    
    115000   305.42023      362.21432      328.65429      690.8686      -4448.0974      4153.0501      1.5862811    
    116000   278.97873      354.66708      300.20132      654.86841      254.67234      4123.7571      1.5975491    
    117000   292.83095      373.41422      315.10731      688.52153     -3910.8096      4130.0403      1.5951187    
    118000   290.06838      351.27297      312.13459      663.40756     -3952.0588      4131.0474      1.5947299    
    119000   293.13811      379.66542      315.43784      695.10326     -4901.3498      4168.8792      1.580258     
    120000   307.27193      378.12531      330.64685      708.77216     -801.06263      4123.4754      1.5976583    
    121000   297.09526      347.14753      319.69602      666.84355      1032.0422      4135.6198      1.5929667    
    122000   306.70962      358.7797       330.04176      688.82146      1889.9006      4153.3229      1.5861769    
    123000   331.9303       368.94467      357.18104      726.12571     -2444.7467      4126.0777      1.5966507    
    124000   283.73966      372.57557      305.32443      677.9          1645.4633      4108.127       1.6036273    
    125000   301.39101      387.54719      324.31856      711.86575     -2545.6341      4131.2834      1.5946388    
    126000   296.84335      341.90922      319.42494      661.33416      257.26002      4091.541       1.610128     
    127000   303.50581      369.85112      326.59423      696.44535     -2935.4742      4150.4949      1.5872576    
    128000   295.04792      342.62254      317.49293      660.11547      1640.3673      4098.3876      1.6074382    
    129000   302.304        379.00088      325.301        704.30188     -847.87802      4123.9017      1.5974931    
    130000   274.52758      369.03266      295.41156      664.44421      2574.5531      4149.5374      1.5876239    
    131000   290.50854      375.14727      312.60823      687.7555      -7527.4468      4118.9266      1.5994227    
    132000   290.65201      342.78975      312.76261      655.55237      245.52264      4156.6372      1.5849121    
    133000   302.72784      358.55125      325.75708      684.30833      2326.6896      4158.3138      1.5842731    
    134000   304.42061      348.05305      327.57862      675.63167      4565.3681      4117.4677      1.5999894    
    135000   313.51287      328.06225      337.36255      665.4248      -471.71246      4147.6234      1.5883565    
    136000   300.81227      354.5447       323.69579      678.24049      263.86837      4106.9929      1.6040701    
    137000   307.92355      364.77369      331.34805      696.12174     -1971.5593      4141.1219      1.5908502    
    138000   309.71279      339.60982      333.27339      672.88321     -30.682892      4184.6237      1.5743123    
    139000   306.36365      336.73653      329.66948      666.40601      732.00751      4132.8454      1.5940361    
    140000   295.41866      323.20537      317.89187      641.09724      1890.0944      4156.8786      1.5848201    
    141000   313.99031      343.41624      337.87632      681.29256     -4032.0843      4165.4004      1.5815778    
    142000   284.99648      368.64557      306.67686      675.32243     -1557.9513      4145.3381      1.5892322    
    143000   305.31287      342.48417      328.53876      671.02293      88.174546      4161.1291      1.5832012    
    144000   299.58714      337.76255      322.37747      660.14002      5276.8025      4095.0502      1.6087482    
    145000   320.88442      356.96678      345.29488      702.26166      2546.5274      4109.575       1.6030623    
    146000   293.0765       348.0844       315.37155      663.45594      1329.4683      4119.7074      1.5991196    
    147000   310.89544      331.23832      334.54602      665.78434      2355.5818      4105.6362      1.6046002    
    148000   288.449        351.32404      310.39202      661.71606      1668.3856      4126.0237      1.5966715    
    149000   287.77819      357.97253      309.67018      667.64271     -10334.724      4148.5789      1.5879907    
    150000   295.04302      363.78034      317.48766      681.268       -625.86307      4152.1736      1.5866159    
    151000   310.2838       369.02481      333.88784      702.91265     -5041.2735      4139.6053      1.591433     
    152000   286.10138      351.5052       307.86581      659.37101      3888.4227      4120.2662      1.5989027    
    153000   293.27995      354.96194      315.59047      670.55241      1428.5768      4148.659       1.58796      
    154000   317.74529      344.40557      341.91694      686.32251     -5884.2627      4173.9284      1.5783463    
    155000   302.89682      342.92629      325.93891      668.8652      -7061.9966      4135.1133      1.5931618    
    156000   286.17718      326.68702      307.94737      634.6344       3262.0452      4156.8599      1.5848272    
    157000   297.74437      364.82183      320.39451      685.21634     -461.25144      4152.2113      1.5866015    
    158000   287.6546       332.25225      309.53718      641.78944      235.13864      4149.1498      1.5877722    
    159000   309.67836      344.10067      333.23635      677.33701      4175.7687      4138.4451      1.5918792    
    160000   330.9347       349.47351      356.10971      705.58322     -2514.2409      4148.8589      1.5878835    
    161000   285.42908      348.50332      307.14236      655.64567     -1944.6118      4165.347       1.5815981    
    162000   288.41091      357.26475      310.35103      667.61578     -1428.0241      4146.3215      1.5888553    
    163000   280.32262      387.01917      301.64744      688.66661     -5786.2363      4149.9395      1.5874701    
    164000   300.09245      351.25515      322.92121      674.17636     -320.68171      4133.8295      1.5936566    
    165000   298.8824       340.4862       321.61911      662.10531     -104.42421      4157.6384      1.5845304    
    166000   299.42836      348.61524      322.2066       670.82184      1799.1435      4143.8091      1.5898186    
    167000   307.13245      378.71649      330.49676      709.21324      2451.2598      4162.0044      1.5828682    
    168000   305.82927      334.13187      329.09445      663.22631      349.73625      4129.5207      1.5953194    
    169000   320.44974      336.12116      344.82713      680.94829      1535.0635      4150.0486      1.5874283    
    170000   309.23463      346.70784      332.75886      679.4667      -5335.5809      4150.1121      1.587404     
    171000   288.89513      338.00464      310.87209      648.87673      3379.2348      4116.8504      1.6002293    
    172000   314.39929      360.65711      338.3164       698.97351     -2334.357       4165.7018      1.5814633    
    173000   288.28505      347.75663      310.21559      657.97221     -1348.2748      4124.805       1.5971433    
    174000   304.06169      342.93784      327.1924       670.13024      1097.3649      4140.4126      1.5911227    
    175000   307.55513      369.41373      330.9516       700.36533      1779.6677      4123.2751      1.5977359    
    176000   305.47001      334.69447      328.70786      663.40232     -6153.1132      4164.9001      1.5817678    
    177000   293.65889      349.94552      315.99823      665.94375      3410.349       4142.1769      1.590445     
    178000   317.12599      360.46388      341.25054      701.71442     -440.87343      4096.2435      1.6082795    
    179000   292.34965      347.17389      314.5894       661.76329     -4384.353       4168.687       1.5803308    
    180000   296.73847      342.07804      319.31208      661.39013     -1283.674       4193.9882      1.5707971    
    181000   296.8579       333.28381      319.4406       652.72441     -376.97125      4139.9612      1.5912962    
    182000   310.4634       338.21523      334.08111      672.29634      1257.9996      4172.4943      1.5788888    
    183000   292.03853      374.02692      314.25461      688.28153      3465.7094      4116.5788      1.6003349    
    184000   274.13044      365.39208      294.98421      660.37629      2581.0197      4166.7471      1.5810666    
    185000   302.06021      322.07417      325.03866      647.11283      122.36386      4169.973       1.5798435    
    186000   312.92466      342.06305      336.7296       678.79265      1898.5584      4156.5822      1.5849331    
    187000   284.56782      331.38093      306.21559      637.59652     -4146.9125      4125.4844      1.5968803    
    188000   291.85177      342.27976      314.05364      656.3334       2655.8688      4169.6097      1.5799811    
    189000   305.18507      357.69288      328.40124      686.09412     -3267.1571      4171.9669      1.5790884    
    190000   298.88141      352.97526      321.61804      674.5933      -4284.4962      4152.8094      1.586373     
    191000   307.97265      338.2839       331.40088      669.68478     -1340.1386      4158.4163      1.5842341    
    192000   304.43174      364.47414      327.5906       692.06474     -1342.2252      4173.4013      1.5785457    
    193000   301.24792      369.71498      324.16458      693.87957     -2959.265       4178.2596      1.5767102    
    194000   288.10107      340.01083      310.01762      650.02845      1139.7295      4149.4108      1.5876723    
    195000   302.91227      354.43152      325.95554      680.38706     -1036.3543      4207.7931      1.5656437    
    196000   285.0894       337.0141       306.77684      643.79094      851.43643      4163.029       1.5824787    
    197000   297.85633      337.59182      320.51499      658.10681     -3836.0526      4160.8651      1.5833017    
    198000   296.37858      349.39864      318.92482      668.32346     -4713.5167      4176.2183      1.5774809    
    199000   294.33298      345.70683      316.72361      662.43044     -1369.4284      4158.8946      1.5840518    
    200000   302.03543      349.77647      325.012        674.78847     -1386.2869      4116.5306      1.6003536    
    200085   302.97522      341.95057      326.02328      667.97385     -4753.7322      4192.6524      1.5712976    
Loop time of 24.4904 on 1 procs for 100000 steps with 362 atoms

Performance: 352.791 ns/day, 0.068 hours/ns, 4083.232 timesteps/s, 1.478 Matom-step/s
99.6% CPU use with 1 MPI tasks x 1 OpenMP threads

MPI task timing breakdown:
Section |  min time  |  avg time  |  max time  |%varavg| %total
---------------------------------------------------------------
Pair    | 13.043     | 13.043     | 13.043     |   0.0 | 53.26
Bond    | 4.637      | 4.637      | 4.637      |   0.0 | 18.93
Neigh   | 4.8713     | 4.8713     | 4.8713     |   0.0 | 19.89
Comm    | 0.53819    | 0.53819    | 0.53819    |   0.0 |  2.20
Output  | 0.50735    | 0.50735    | 0.50735    |   0.0 |  2.07
Modify  | 0.7557     | 0.7557     | 0.7557     |   0.0 |  3.09
Other   |            | 0.1382     |            |       |  0.56

Nlocal:            362 ave         362 max         362 min
Histogram: 1 0 0 0 0 0 0 0 0 0
Nghost:           2276 ave        2276 max        2276 min
Histogram: 1 0 0 0 0 0 0 0 0 0
Neighs:          21125 ave       21125 max       21125 min
Histogram: 1 0 0 0 0 0 0 0 0 0

Total # of neighbors = 21125
Ave neighs/atom = 58.356354
Ave special neighs/atom = 6.1878453
Neighbor list builds = 2233
Dangerous builds = 0
unfix           npt_relax

# fix nvt_heat    all nvt temp 300 1000 ${thermal_damp}
# run 100000      # 100 picoseconds
# unfix           nvt_heat
#
# fix npt_heat    all npt temp 1000 1000 ${thermal_damp} iso 0 0 ${pressure_damp}
# run 100000      # 100 picoseconds
# unfix           npt_heat
#
# fix cooling_npt all npt temp 1000 300 ${thermal_damp} iso 0 0 ${pressure_damp}
# run 700000      # 700 picoseconds
# unfix           cooling_npt
#
# fix npt_final   all npt temp 300 300 ${thermal_damp} iso 0 0 100
# run 100000      # 100 picoseconds
# unfix           npt_final

# density computation
variable rho equal density
fix integrate  all npt temp ${temp} ${temp} ${thermal_damp} iso 0 0 ${pressure_damp}
fix integrate  all npt temp 300 ${temp} ${thermal_damp} iso 0 0 ${pressure_damp}
fix integrate  all npt temp 300 300 ${thermal_damp} iso 0 0 ${pressure_damp}
fix integrate  all npt temp 300 300 100.0 iso 0 0 ${pressure_damp}
fix integrate  all npt temp 300 300 100.0 iso 0 0 500.0
fix rho50k all ave/time 10 5000 50000 v_rho mode scalar ave one
run 50000
Generated 6 of 6 mixed pair_coeff terms from arithmetic mixing rule
WARNING: Inconsistent image flags
For more information see https://docs.lammps.org/err0027 (src/domain.cpp:1052)
Per MPI rank memory allocation (min/avg/max) = 17.48 | 17.48 | 17.48 Mbytes
   Step          Temp          PotEng         KinEng         TotEng         Press          Volume        Density    
    200085   302.97522      341.95057      326.02328      667.97385     -4753.7322      4192.6524      1.5712976    
    201000   332.49943      364.88372      357.79347      722.67718      3058.9222      4180.4159      1.5758969    
    202000   295.54373      342.0542       318.02645      660.08065     -5218.6451      4185.1825      1.5741021    
    203000   281.82103      362.31725      303.25984      665.57709      63.033465      4136.5778      1.5925978    
    204000   307.67464      387.71486      331.0802       718.79506      4988.3906      4172.6184      1.5788419    
    205000   287.79245      359.28452      309.68552      668.97005      674.42299      4199.5409      1.5687202    
    206000   282.37033      345.3513       303.85093      649.20223      4928.3794      4141.1831      1.5908267    
    207000   294.5496       361.86331      316.9567       678.82001     -3385.8879      4196.0955      1.5700083    
    208000   276.67314      340.95276      297.72034      638.6731       192.43347      4130.9857      1.5947537    
    209000   275.13337      358.14274      296.06343      654.20618     -3692.1741      4148.2039      1.5881342    
    210000   297.33427      347.34228      319.95321      667.29549     -5633.1242      4248.5755      1.5506149    
    211000   306.95621      350.27895      330.30712      680.58607      957.20562      4206.7285      1.5660399    
    212000   288.6909       371.56571      310.65232      682.21803     -7721.8433      4163.327       1.5823654    
    213000   259.42109      338.62048      279.15588      617.77636      4194.0077      4144.6513      1.5894955    
    214000   315.4118       334.50556      339.40594      673.91149      6074.986       4153.172       1.5862345    
    215000   288.62851      385.71765      310.58518      696.30283     -7413.9984      4212.1467      1.5640255    
    216000   307.85221      341.19926      331.27128      672.47053     -1269.7682      4206.932       1.5659641    
    217000   313.73382      355.79423      337.60031      693.39454      3237.2099      4146.794       1.5886742    
    218000   286.72655      345.92332      308.53854      654.46186      3383.1501      4181.1157      1.5756332    
    219000   318.60379      346.27825      342.84075      689.119        4355.6668      4151.7226      1.5867882    
    220000   320.90132      359.79286      345.31306      705.10592     -1671.2661      4111.492       1.6023148    
    221000   300.88027      344.54633      323.76896      668.31529      6926.896       4141.5823      1.5906734    
    222000   319.0976       355.49475      343.37213      698.86688     -4868.6765      4185.7265      1.5738975    
    223000   287.11265      357.03863      308.954        665.99263     -4446.4108      4175.096       1.577905     
    224000   303.77027      339.10005      326.87881      665.97886      1103.2594      4173.6392      1.5784557    
    225000   299.43645      349.2713       322.2153       671.48661     -747.6165       4169.8191      1.5799018    
    226000   292.74645      357.62512      315.01638      672.6415      -7720.4837      4196.5167      1.5698507    
    227000   327.1171       361.83799      352.00169      713.83968     -2463.1524      4204.167       1.566994     
    228000   282.04752      354.05077      303.50355      657.55432     -7725.8943      4224.692       1.5593811    
    229000   298.57424      354.46682      321.2875       675.75432     -5061.8128      4173.2723      1.5785945    
    230000   303.42271      365.01531      326.50481      691.52012     -1707.6898      4157.3879      1.5846259    
    231000   313.31497      333.5316       337.1496       670.6812      -3634.4707      4154.9289      1.5855638    
    232000   319.95595      355.27617      344.29578      699.57195     -5802.7516      4194.9597      1.5704334    
    233000   314.63514      345.79452      338.5702       684.36471     -1424.8726      4178.6354      1.5765684    
    234000   313.05527      339.98232      336.87014      676.85246      3929.0942      4154.3895      1.5857696    
    235000   290.65432      365.55065      312.7651       678.31575      5133.2659      4132.0594      1.5943393    
    236000   278.59969      353.38601      299.79344      653.17945      2284.4245      4158.1867      1.5843215    
    237000   318.62083      335.66307      342.85909      678.52216     -3099.6643      4142.1048      1.5904727    
    238000   298.97793      349.7523       321.72191      671.47421     -1541.501       4188.2622      1.5729446    
    239000   302.38058      346.46573      325.3834       671.84913     -154.28079      4159.2453      1.5839183    
    240000   279.35419      351.30251      300.60535      651.90785     -1373.7308      4158.4195      1.5842328    
    241000   294.75146      363.61903      317.17392      680.79296     -4990.3021      4190.0906      1.5722583    
    242000   300.64411      360.9659       323.51483      684.48073     -3186.3383      4171.3224      1.5793324    
    243000   296.82446      349.10975      319.40462      668.51437     -4576.415       4147.3816      1.5884491    
    244000   273.11446      334.99203      293.89094      628.88296      2939.2965      4166.7319      1.5810724    
    245000   315.34789      332.24058      339.33717      671.57776      8124.4492      4155.499       1.5853462    
    246000   319.49327      328.34413      343.7979       672.14203     -1168.3372      4190.8749      1.571964     
    247000   306.63529      346.17744      329.96178      676.13923      2808.9303      4172.752       1.5787913    
    248000   290.56721      347.00751      312.67137      659.67888     -632.65318      4172.694       1.5788133    
    249000   306.0218       359.34994      329.30162      688.65156      2033.9984      4150.5935      1.5872199    
    250000   294.97372      336.24521      317.41309      653.6583      -685.76102      4170.4331      1.5796692    
    250085   314.05787      323.41635      337.94902      661.36537      1827.7273      4174.2169      1.5782373    
Loop time of 13.2128 on 1 procs for 50000 steps with 362 atoms

Performance: 326.956 ns/day, 0.073 hours/ns, 3784.207 timesteps/s, 1.370 Matom-step/s
99.7% CPU use with 1 MPI tasks x 1 OpenMP threads

MPI task timing breakdown:
Section |  min time  |  avg time  |  max time  |%varavg| %total
---------------------------------------------------------------
Pair    | 7.0011     | 7.0011     | 7.0011     |   0.0 | 52.99
Bond    | 2.52       | 2.52       | 2.52       |   0.0 | 19.07
Neigh   | 2.6312     | 2.6312     | 2.6312     |   0.0 | 19.91
Comm    | 0.29183    | 0.29183    | 0.29183    |   0.0 |  2.21
Output  | 0.27995    | 0.27995    | 0.27995    |   0.0 |  2.12
Modify  | 0.41299    | 0.41299    | 0.41299    |   0.0 |  3.13
Other   |            | 0.07579    |            |       |  0.57

Nlocal:            362 ave         362 max         362 min
Histogram: 1 0 0 0 0 0 0 0 0 0
Nghost:           2262 ave        2262 max        2262 min
Histogram: 1 0 0 0 0 0 0 0 0 0
Neighs:          21239 ave       21239 max       21239 min
Histogram: 1 0 0 0 0 0 0 0 0 0

Total # of neighbors = 21239
Ave neighs/atom = 58.671271
Ave special neighs/atom = 6.1878453
Neighbor list builds = 1114
Dangerous builds = 0
unfix integrate
unfix rho50k

# Compute initial state
fix 3 all box/relax  aniso 0.0
minimize ${etol} ${ftol} ${maxiter} ${maxeval}
minimize 0 ${ftol} ${maxiter} ${maxeval}
minimize 0 1e-10 ${maxiter} ${maxeval}
minimize 0 1e-10 100000 ${maxeval}
minimize 0 1e-10 100000 100000
Generated 6 of 6 mixed pair_coeff terms from arithmetic mixing rule
WARNING: Energy due to 3 extra global DOFs will be included in minimizer energies
 (src/min.cpp:222)
WARNING: Inconsistent image flags
For more information see https://docs.lammps.org/err0027 (src/domain.cpp:1052)
Per MPI rank memory allocation (min/avg/max) = 18.59 | 18.59 | 18.59 Mbytes
   Step          Temp          PotEng         KinEng         TotEng         Press          Volume        Density    
    250085   314.05787      323.41635      337.94902      661.36537      1827.7273      4174.2169      1.5782373    
    250108   314.05787      320.78844      337.94902      658.73746      3323.0804      4169.0926      1.5801771    
Loop time of 0.0585949 on 1 procs for 23 steps with 362 atoms

100.0% CPU use with 1 MPI tasks x 1 OpenMP threads

Minimization stats:
  Stopping criterion = linesearch alpha is zero
  Energy initial, next-to-last, final = 
      323.416349523783    320.78844154157    320.78844154157
  Force two-norm initial, final = 735.95209 632.08686
  Force max component initial, final = 269.9983 91.661286
  Final line search alpha, max atom move = 1.6256766e-14 1.4901161e-12
  Iterations, force evaluations = 23 212

MPI task timing breakdown:
Section |  min time  |  avg time  |  max time  |%varavg| %total
---------------------------------------------------------------
Pair    | 0.038288   | 0.038288   | 0.038288   |   0.0 | 65.34
Bond    | 0.012283   | 0.012283   | 0.012283   |   0.0 | 20.96
Neigh   | 0          | 0          | 0          |   0.0 |  0.00
Comm    | 0.0012034  | 0.0012034  | 0.0012034  |   0.0 |  2.05
Output  | 0.00059837 | 0.00059837 | 0.00059837 |   0.0 |  1.02
Modify  | 0          | 0          | 0          |   0.0 |  0.00
Other   |            | 0.006223   |            |       | 10.62

Nlocal:            362 ave         362 max         362 min
Histogram: 1 0 0 0 0 0 0 0 0 0
Nghost:           2248 ave        2248 max        2248 min
Histogram: 1 0 0 0 0 0 0 0 0 0
Neighs:          21197 ave       21197 max       21197 min
Histogram: 1 0 0 0 0 0 0 0 0 0

Total # of neighbors = 21197
Ave neighs/atom = 58.555249
Ave special neighs/atom = 6.1878453
Neighbor list builds = 0
Dangerous builds = 0

variable tmp equal pxx
variable pxx0 equal ${tmp}
variable pxx0 equal 2626.70596013311
variable tmp equal pyy
variable pyy0 equal ${tmp}
variable pyy0 equal 4948.83339532489
variable tmp equal pzz
variable pzz0 equal ${tmp}
variable pzz0 equal 2393.70183738109
variable tmp equal pyz
variable pyz0 equal ${tmp}
variable pyz0 equal -5173.55566930994
variable tmp equal pxz
variable pxz0 equal ${tmp}
variable pxz0 equal 3326.80330932483
variable tmp equal pxy
variable pxy0 equal ${tmp}
variable pxy0 equal 2840.01517141948

variable tmp equal lx
variable lx0 equal ${tmp}
variable lx0 equal 17.5651961314071
variable tmp equal ly
variable ly0 equal ${tmp}
variable ly0 equal 13.168283231304
variable tmp equal lz
variable lz0 equal ${tmp}
variable lz0 equal 18.0243402748072

# These formulas define the derivatives w.r.t. strain components
# Constants uses $, variables use v_
variable d1 equal -(v_pxx1-${pxx0})/(v_delta/v_len0)*${cfac}
variable d1 equal -(v_pxx1-2626.70596013311)/(v_delta/v_len0)*${cfac}
variable d1 equal -(v_pxx1-2626.70596013311)/(v_delta/v_len0)*0.0001
variable d2 equal -(v_pyy1-${pyy0})/(v_delta/v_len0)*${cfac}
variable d2 equal -(v_pyy1-4948.83339532489)/(v_delta/v_len0)*${cfac}
variable d2 equal -(v_pyy1-4948.83339532489)/(v_delta/v_len0)*0.0001
variable d3 equal -(v_pzz1-${pzz0})/(v_delta/v_len0)*${cfac}
variable d3 equal -(v_pzz1-2393.70183738109)/(v_delta/v_len0)*${cfac}
variable d3 equal -(v_pzz1-2393.70183738109)/(v_delta/v_len0)*0.0001
variable d4 equal -(v_pyz1-${pyz0})/(v_delta/v_len0)*${cfac}
variable d4 equal -(v_pyz1--5173.55566930994)/(v_delta/v_len0)*${cfac}
variable d4 equal -(v_pyz1--5173.55566930994)/(v_delta/v_len0)*0.0001
variable d5 equal -(v_pxz1-${pxz0})/(v_delta/v_len0)*${cfac}
variable d5 equal -(v_pxz1-3326.80330932483)/(v_delta/v_len0)*${cfac}
variable d5 equal -(v_pxz1-3326.80330932483)/(v_delta/v_len0)*0.0001
variable d6 equal -(v_pxy1-${pxy0})/(v_delta/v_len0)*${cfac}
variable d6 equal -(v_pxy1-2840.01517141948)/(v_delta/v_len0)*${cfac}
variable d6 equal -(v_pxy1-2840.01517141948)/(v_delta/v_len0)*0.0001

# displace_atoms all random ${atomjiggle} ${atomjiggle} ${atomjiggle} 87287 units box

# Write restart
unfix 3
write_restart restart_333U-50C-1-vasp.equil
System init for write_restart ...
Generated 6 of 6 mixed pair_coeff terms from arithmetic mixing rule

# uxx Perturbation

variable dir equal 1
include ./input/displace_333U-50C-1-vasp.mod
if "${dir} == 1" then    "variable len0 equal ${lx0}"
variable len0 equal ${lx0}
variable len0 equal 17.5651961314071
if "${dir} == 2" then    "variable len0 equal ${ly0}"
if "${dir} == 3" then    "variable len0 equal ${lz0}"
if "${dir} == 4" then    "variable len0 equal ${lz0}"
if "${dir} == 5" then    "variable len0 equal ${lz0}"
if "${dir} == 6" then    "variable len0 equal ${ly0}"

# Reset box and simulation parameters

clear
OMP_NUM_THREADS environment is not set. Defaulting to 1 thread.
  using 1 OpenMP thread(s) per MPI task
box tilt large

The 'box' command has been removed and will be ignored

read_restart restart_333U-50C-1-vasp.equil
Reading restart file ...
  restart file = 10 Sep 2025, LAMMPS = 10 Sep 2025
  restoring atom style full from restart
  triclinic box = (-0.21174407 -0.17156862 -0.21884164) to (17.353452 12.996715 17.805499) with tilt (-8.6062176 0.031275459 0.31025181)
WARNING: Triclinic box skew is large. LAMMPS will run inefficiently. (src/domain.cpp:221)
  1 by 1 by 1 MPI processor grid
  restoring pair style lj/cut from restart
  restoring bond style harmonic from restart
  restoring angle style hybrid from restart
  restoring dihedral style harmonic from restart
  362 atoms
  387 bonds
  733 angles
  915 dihedrals
Finding 1-2 1-3 1-4 neighbors ...
  special bond factors lj:    0        0        1       
  special bond factors coul:  0        0        1       
     4 = max # of 1-2 neighbors
     8 = max # of 1-3 neighbors
    12 = max # of special neighbors
  special bonds CPU = 0.000 seconds
  read_restart CPU = 0.002 seconds
include ./input/angles_333U-50C-1-vasp.mod
angle_style hybrid fourier cosine/periodic
angle_coeff 1 fourier 114.246973        0.343737        0.374972        0.281246
angle_coeff 2 fourier 157.882480        0.343737        0.374972        0.281246
angle_coeff 3 fourier 221.735285        0.343737        0.374972        0.281246
angle_coeff 4 fourier 32.417871        0.343737        0.374972        0.281246
angle_coeff 5 fourier 83.380072        0.343737        0.374972        0.281246
angle_coeff 6 fourier 58.020602        0.343737        0.374972        0.281246
angle_coeff 7 fourier 90.420412        0.343737        0.374972        0.281246
angle_coeff 8 fourier 75.498766        0.343737        0.374972        0.281246
angle_coeff 9 cosine/periodic 88.853997              -1               3

# Negative deformation

variable delta equal -${up}*${len0}
variable delta equal -0.02*${len0}
variable delta equal -0.02*17.5651961314071
variable deltaxy equal -${up}*xy
variable deltaxy equal -0.02*xy
variable deltaxz equal -${up}*xz
variable deltaxz equal -0.02*xz
variable deltayz equal -${up}*yz
variable deltayz equal -0.02*yz
if "${dir} == 1" then    "change_box all x delta 0 ${delta} xy delta ${deltaxy} xz delta ${deltaxz} remap units box"
change_box all x delta 0 ${delta} xy delta ${deltaxy} xz delta ${deltaxz} remap units box
change_box all x delta 0 -0.351303922628142 xy delta ${deltaxy} xz delta ${deltaxz} remap units box
change_box all x delta 0 -0.351303922628142 xy delta 0.172124351608781 xz delta ${deltaxz} remap units box
change_box all x delta 0 -0.351303922628142 xy delta 0.172124351608781 xz delta -0.000625509177583876 remap units box
Changing box ...
WARNING: Triclinic box skew is large. LAMMPS will run inefficiently. (src/domain.cpp:221)
  triclinic box = (-0.21174407 -0.17156862 -0.21884164) to (17.002148 12.996715 17.805499) with tilt (-8.6062176 0.031275459 0.31025181)
WARNING: Triclinic box skew is large. LAMMPS will run inefficiently. (src/domain.cpp:221)
  triclinic box = (-0.21174407 -0.17156862 -0.21884164) to (17.002148 12.996715 17.805499) with tilt (-8.4340932 0.031275459 0.31025181)
WARNING: Triclinic box skew is large. LAMMPS will run inefficiently. (src/domain.cpp:221)
  triclinic box = (-0.21174407 -0.17156862 -0.21884164) to (17.002148 12.996715 17.805499) with tilt (-8.4340932 0.03064995 0.31025181)
if "${dir} == 2" then    "change_box all y delta 0 ${delta} yz delta ${deltayz} remap units box"
if "${dir} == 3" then    "change_box all z delta 0 ${delta} remap units box"
if "${dir} == 4" then    "change_box all yz delta ${delta} remap units box"
if "${dir} == 5" then    "change_box all xz delta ${delta} remap units box"
if "${dir} == 6" then    "change_box all xy delta ${delta} remap units box"

# Relax atoms positions

minimize ${etol} ${ftol} ${maxiter} ${maxeval}
minimize 0 ${ftol} ${maxiter} ${maxeval}
minimize 0 1e-10 ${maxiter} ${maxeval}
minimize 0 1e-10 100000 ${maxeval}
minimize 0 1e-10 100000 100000
Generated 6 of 6 mixed pair_coeff terms from arithmetic mixing rule
Neighbor list info ...
  update: every = 1 steps, delay = 0 steps, check = yes
  max neighbors/atom: 2000, page size: 100000
  master list distance cutoff = 7
  ghost atom cutoff = 7
  binsize = 3.5, bins = 8 4 6
  1 neighbor lists, perpetual/occasional/extra = 1 0 0
  (1) pair lj/cut, perpetual
      attributes: half, newton on
      pair build: half/bin/newton/tri
      stencil: half/bin/3d/tri
      bin: standard
WARNING: Inconsistent image flags
For more information see https://docs.lammps.org/err0027 (src/domain.cpp:1052)
Per MPI rank memory allocation (min/avg/max) = 17.52 | 17.52 | 17.52 Mbytes
   Step          Temp          E_pair         E_mol          TotEng         Press     
    250108   314.05787     -403.51272      752.90186      687.33816      27456.102    
    250153   314.05787     -454.53153      475.35176      358.76924      5745.7732    
Loop time of 0.0342605 on 1 procs for 45 steps with 362 atoms

100.0% CPU use with 1 MPI tasks x 1 OpenMP threads

Minimization stats:
  Stopping criterion = linesearch alpha is zero
  Energy initial, next-to-last, final = 
      349.389140530618   20.8202281555297   20.8202281555297
  Force two-norm initial, final = 626.78409 16.520358
  Force max component initial, final = 73.637089 2.346774
  Final line search alpha, max atom move = 3.4541319e-11 8.1060669e-11
  Iterations, force evaluations = 45 144

MPI task timing breakdown:
Section |  min time  |  avg time  |  max time  |%varavg| %total
---------------------------------------------------------------
Pair    | 0.025902   | 0.025902   | 0.025902   |   0.0 | 75.60
Bond    | 0.0069254  | 0.0069254  | 0.0069254  |   0.0 | 20.21
Neigh   | 0          | 0          | 0          |   0.0 |  0.00
Comm    | 0.00080756 | 0.00080756 | 0.00080756 |   0.0 |  2.36
Output  | 0          | 0          | 0          |   0.0 |  0.00
Modify  | 0          | 0          | 0          |   0.0 |  0.00
Other   |            | 0.0006252  |            |       |  1.82

Nlocal:            362 ave         362 max         362 min
Histogram: 1 0 0 0 0 0 0 0 0 0
Nghost:           2264 ave        2264 max        2264 min
Histogram: 1 0 0 0 0 0 0 0 0 0
Neighs:          21674 ave       21674 max       21674 min
Histogram: 1 0 0 0 0 0 0 0 0 0

Total # of neighbors = 21674
Ave neighs/atom = 59.872928
Ave special neighs/atom = 6.1878453
Neighbor list builds = 0
Dangerous builds = 0

# Obtain new stress tensor

variable tmp equal pxx
variable pxx1 equal ${tmp}
variable pxx1 equal 7877.84945416893
variable tmp equal pyy
variable pyy1 equal ${tmp}
variable pyy1 equal 7020.71497393893
variable tmp equal pzz
variable pzz1 equal ${tmp}
variable pzz1 equal 2338.75524049361
variable tmp equal pxy
variable pxy1 equal ${tmp}
variable pxy1 equal -25.3074532151045
variable tmp equal pxz
variable pxz1 equal ${tmp}
variable pxz1 equal 3159.83267871787
variable tmp equal pyz
variable pyz1 equal ${tmp}
variable pyz1 equal -3346.61024334211

# Compute elastic constant from pressure tensor

variable C1neg equal ${d1}
variable C1neg equal 26.2557174701791
variable C2neg equal ${d2}
variable C2neg equal 10.3594078930702
variable C3neg equal ${d3}
variable C3neg equal -0.274732984437401
variable C4neg equal ${d4}
variable C4neg equal 9.13472712983915
variable C5neg equal ${d5}
variable C5neg equal -0.834853153034801
variable C6neg equal ${d6}
variable C6neg equal -14.3266131231729

# Reset box and simulation parameters

clear
OMP_NUM_THREADS environment is not set. Defaulting to 1 thread.
  using 1 OpenMP thread(s) per MPI task
box tilt large

The 'box' command has been removed and will be ignored

read_restart restart_333U-50C-1-vasp.equil
Reading restart file ...
  restart file = 10 Sep 2025, LAMMPS = 10 Sep 2025
  restoring atom style full from restart
  triclinic box = (-0.21174407 -0.17156862 -0.21884164) to (17.353452 12.996715 17.805499) with tilt (-8.6062176 0.031275459 0.31025181)
WARNING: Triclinic box skew is large. LAMMPS will run inefficiently. (src/domain.cpp:221)
  1 by 1 by 1 MPI processor grid
  restoring pair style lj/cut from restart
  restoring bond style harmonic from restart
  restoring angle style hybrid from restart
  restoring dihedral style harmonic from restart
  362 atoms
  387 bonds
  733 angles
  915 dihedrals
Finding 1-2 1-3 1-4 neighbors ...
  special bond factors lj:    0        0        1       
  special bond factors coul:  0        0        1       
     4 = max # of 1-2 neighbors
     8 = max # of 1-3 neighbors
    12 = max # of special neighbors
  special bonds CPU = 0.000 seconds
  read_restart CPU = 0.002 seconds
include ./input/angles_333U-50C-1-vasp.mod
angle_style hybrid fourier cosine/periodic
angle_coeff 1 fourier 114.246973        0.343737        0.374972        0.281246
angle_coeff 2 fourier 157.882480        0.343737        0.374972        0.281246
angle_coeff 3 fourier 221.735285        0.343737        0.374972        0.281246
angle_coeff 4 fourier 32.417871        0.343737        0.374972        0.281246
angle_coeff 5 fourier 83.380072        0.343737        0.374972        0.281246
angle_coeff 6 fourier 58.020602        0.343737        0.374972        0.281246
angle_coeff 7 fourier 90.420412        0.343737        0.374972        0.281246
angle_coeff 8 fourier 75.498766        0.343737        0.374972        0.281246
angle_coeff 9 cosine/periodic 88.853997              -1               3

# Positive deformation

variable delta equal ${up}*${len0}
variable delta equal 0.02*${len0}
variable delta equal 0.02*17.5651961314071
variable deltaxy equal ${up}*xy
variable deltaxy equal 0.02*xy
variable deltaxz equal ${up}*xz
variable deltaxz equal 0.02*xz
variable deltayz equal ${up}*yz
variable deltayz equal 0.02*yz
if "${dir} == 1" then    "change_box all x delta 0 ${delta} xy delta ${deltaxy} xz delta ${deltaxz} remap units box"
change_box all x delta 0 ${delta} xy delta ${deltaxy} xz delta ${deltaxz} remap units box
change_box all x delta 0 0.351303922628142 xy delta ${deltaxy} xz delta ${deltaxz} remap units box
change_box all x delta 0 0.351303922628142 xy delta -0.172124351608781 xz delta ${deltaxz} remap units box
change_box all x delta 0 0.351303922628142 xy delta -0.172124351608781 xz delta 0.000625509177583876 remap units box
Changing box ...
WARNING: Triclinic box skew is large. LAMMPS will run inefficiently. (src/domain.cpp:221)
  triclinic box = (-0.21174407 -0.17156862 -0.21884164) to (17.704756 12.996715 17.805499) with tilt (-8.6062176 0.031275459 0.31025181)
WARNING: Triclinic box skew is large. LAMMPS will run inefficiently. (src/domain.cpp:221)
  triclinic box = (-0.21174407 -0.17156862 -0.21884164) to (17.704756 12.996715 17.805499) with tilt (-8.7783419 0.031275459 0.31025181)
WARNING: Triclinic box skew is large. LAMMPS will run inefficiently. (src/domain.cpp:221)
  triclinic box = (-0.21174407 -0.17156862 -0.21884164) to (17.704756 12.996715 17.805499) with tilt (-8.7783419 0.031900968 0.31025181)
if "${dir} == 2" then    "change_box all y delta 0 ${delta} yz delta ${deltayz} remap units box"
if "${dir} == 3" then    "change_box all z delta 0 ${delta} remap units box"
if "${dir} == 4" then    "change_box all yz delta ${delta} remap units box"
if "${dir} == 5" then    "change_box all xz delta ${delta} remap units box"
if "${dir} == 6" then    "change_box all xy delta ${delta} remap units box"

# Relax atoms positions

minimize ${etol} ${ftol} ${maxiter} ${maxeval}
minimize 0 ${ftol} ${maxiter} ${maxeval}
minimize 0 1e-10 ${maxiter} ${maxeval}
minimize 0 1e-10 100000 ${maxeval}
minimize 0 1e-10 100000 100000
Generated 6 of 6 mixed pair_coeff terms from arithmetic mixing rule
Neighbor list info ...
  update: every = 1 steps, delay = 0 steps, check = yes
  max neighbors/atom: 2000, page size: 100000
  master list distance cutoff = 7
  ghost atom cutoff = 7
  binsize = 3.5, bins = 8 4 6
  1 neighbor lists, perpetual/occasional/extra = 1 0 0
  (1) pair lj/cut, perpetual
      attributes: half, newton on
      pair build: half/bin/newton/tri
      stencil: half/bin/3d/tri
      bin: standard
WARNING: Inconsistent image flags
For more information see https://docs.lammps.org/err0027 (src/domain.cpp:1052)
Per MPI rank memory allocation (min/avg/max) = 17.51 | 17.51 | 17.51 Mbytes
   Step          Temp          E_pair         E_mol          TotEng         Press     
    250108   314.05787     -434.84758      787.03412      690.13556     -20030.568    
    250150   314.05787     -466.95355      497.9872       368.98267     -4812.6813    
Loop time of 0.0315339 on 1 procs for 42 steps with 362 atoms

100.0% CPU use with 1 MPI tasks x 1 OpenMP threads

Minimization stats:
  Stopping criterion = linesearch alpha is zero
  Energy initial, next-to-last, final = 
      352.186543024634   31.0336500105875   31.0336500105875
  Force two-norm initial, final = 649.75345 16.866619
  Force max component initial, final = 75.997972 2.3852784
  Final line search alpha, max atom move = 2.6148314e-11 6.2371009e-11
  Iterations, force evaluations = 42 138

MPI task timing breakdown:
Section |  min time  |  avg time  |  max time  |%varavg| %total
---------------------------------------------------------------
Pair    | 0.023495   | 0.023495   | 0.023495   |   0.0 | 74.51
Bond    | 0.0066904  | 0.0066904  | 0.0066904  |   0.0 | 21.22
Neigh   | 0          | 0          | 0          |   0.0 |  0.00
Comm    | 0.00073885 | 0.00073885 | 0.00073885 |   0.0 |  2.34
Output  | 0          | 0          | 0          |   0.0 |  0.00
Modify  | 0          | 0          | 0          |   0.0 |  0.00
Other   |            | 0.0006093  |            |       |  1.93

Nlocal:            362 ave         362 max         362 min
Histogram: 1 0 0 0 0 0 0 0 0 0
Nghost:           2226 ave        2226 max        2226 min
Histogram: 1 0 0 0 0 0 0 0 0 0
Neighs:          20788 ave       20788 max       20788 min
Histogram: 1 0 0 0 0 0 0 0 0 0

Total # of neighbors = 20788
Ave neighs/atom = 57.425414
Ave special neighs/atom = 6.1878453
Neighbor list builds = 0
Dangerous builds = 0

# Obtain new stress tensor

variable tmp equal pe
variable e1 equal ${tmp}
variable e1 equal 31.0336500105875
variable tmp equal press
variable p1 equal ${tmp}
variable p1 equal -4812.68128025135
variable tmp equal pxx
variable pxx1 equal ${tmp}
variable pxx1 equal -8109.1920755594
variable tmp equal pyy
variable pyy1 equal ${tmp}
variable pyy1 equal -1679.31741865854
variable tmp equal pzz
variable pzz1 equal ${tmp}
variable pzz1 equal -4649.53434653611
variable tmp equal pxy
variable pxy1 equal ${tmp}
variable pxy1 equal 148.986958327214
variable tmp equal pxz
variable pxz1 equal ${tmp}
variable pxz1 equal 1609.44807094918
variable tmp equal pyz
variable pyz1 equal ${tmp}
variable pyz1 equal -3776.90340754418

# Compute elastic constant from pressure tensor

variable C1pos equal ${d1}
variable C1pos equal 53.6794901784626
variable C2pos equal ${d2}
variable C2pos equal 33.1407540699172
variable C3pos equal ${d3}
variable C3pos equal 35.216180919586
variable C4pos equal ${d4}
variable C4pos equal -6.9832613088288
variable C5pos equal ${d5}
variable C5pos equal 8.58677619187825
variable C6pos equal ${d6}
variable C6pos equal 13.4551410654613

# Combine positive and negative

variable C1${dir} equal 0.5*(${C1neg}+${C1pos})
variable C11 equal 0.5*(${C1neg}+${C1pos})
variable C11 equal 0.5*(26.2557174701791+${C1pos})
variable C11 equal 0.5*(26.2557174701791+53.6794901784626)
variable C2${dir} equal 0.5*(${C2neg}+${C2pos})
variable C21 equal 0.5*(${C2neg}+${C2pos})
variable C21 equal 0.5*(10.3594078930702+${C2pos})
variable C21 equal 0.5*(10.3594078930702+33.1407540699172)
variable C3${dir} equal 0.5*(${C3neg}+${C3pos})
variable C31 equal 0.5*(${C3neg}+${C3pos})
variable C31 equal 0.5*(-0.274732984437401+${C3pos})
variable C31 equal 0.5*(-0.274732984437401+35.216180919586)
variable C4${dir} equal 0.5*(${C4neg}+${C4pos})
variable C41 equal 0.5*(${C4neg}+${C4pos})
variable C41 equal 0.5*(9.13472712983915+${C4pos})
variable C41 equal 0.5*(9.13472712983915+-6.9832613088288)
variable C5${dir} equal 0.5*(${C5neg}+${C5pos})
variable C51 equal 0.5*(${C5neg}+${C5pos})
variable C51 equal 0.5*(-0.834853153034801+${C5pos})
variable C51 equal 0.5*(-0.834853153034801+8.58677619187825)
variable C6${dir} equal 0.5*(${C6neg}+${C6pos})
variable C61 equal 0.5*(${C6neg}+${C6pos})
variable C61 equal 0.5*(-14.3266131231729+${C6pos})
variable C61 equal 0.5*(-14.3266131231729+13.4551410654613)

# Delete dir to make sure it is not reused

variable dir delete

# uyy Perturbation

variable dir equal 2
include ./input/displace_333U-50C-1-vasp.mod
if "${dir} == 1" then    "variable len0 equal ${lx0}"
if "${dir} == 2" then    "variable len0 equal ${ly0}"
variable len0 equal ${ly0}
variable len0 equal 13.168283231304
if "${dir} == 3" then    "variable len0 equal ${lz0}"
if "${dir} == 4" then    "variable len0 equal ${lz0}"
if "${dir} == 5" then    "variable len0 equal ${lz0}"
if "${dir} == 6" then    "variable len0 equal ${ly0}"

# Reset box and simulation parameters

clear
OMP_NUM_THREADS environment is not set. Defaulting to 1 thread.
  using 1 OpenMP thread(s) per MPI task
box tilt large

The 'box' command has been removed and will be ignored

read_restart restart_333U-50C-1-vasp.equil
Reading restart file ...
  restart file = 10 Sep 2025, LAMMPS = 10 Sep 2025
  restoring atom style full from restart
  triclinic box = (-0.21174407 -0.17156862 -0.21884164) to (17.353452 12.996715 17.805499) with tilt (-8.6062176 0.031275459 0.31025181)
WARNING: Triclinic box skew is large. LAMMPS will run inefficiently. (src/domain.cpp:221)
  1 by 1 by 1 MPI processor grid
  restoring pair style lj/cut from restart
  restoring bond style harmonic from restart
  restoring angle style hybrid from restart
  restoring dihedral style harmonic from restart
  362 atoms
  387 bonds
  733 angles
  915 dihedrals
Finding 1-2 1-3 1-4 neighbors ...
  special bond factors lj:    0        0        1       
  special bond factors coul:  0        0        1       
     4 = max # of 1-2 neighbors
     8 = max # of 1-3 neighbors
    12 = max # of special neighbors
  special bonds CPU = 0.000 seconds
  read_restart CPU = 0.001 seconds
include ./input/angles_333U-50C-1-vasp.mod
angle_style hybrid fourier cosine/periodic
angle_coeff 1 fourier 114.246973        0.343737        0.374972        0.281246
angle_coeff 2 fourier 157.882480        0.343737        0.374972        0.281246
angle_coeff 3 fourier 221.735285        0.343737        0.374972        0.281246
angle_coeff 4 fourier 32.417871        0.343737        0.374972        0.281246
angle_coeff 5 fourier 83.380072        0.343737        0.374972        0.281246
angle_coeff 6 fourier 58.020602        0.343737        0.374972        0.281246
angle_coeff 7 fourier 90.420412        0.343737        0.374972        0.281246
angle_coeff 8 fourier 75.498766        0.343737        0.374972        0.281246
angle_coeff 9 cosine/periodic 88.853997              -1               3

# Negative deformation

variable delta equal -${up}*${len0}
variable delta equal -0.02*${len0}
variable delta equal -0.02*13.168283231304
variable deltaxy equal -${up}*xy
variable deltaxy equal -0.02*xy
variable deltaxz equal -${up}*xz
variable deltaxz equal -0.02*xz
variable deltayz equal -${up}*yz
variable deltayz equal -0.02*yz
if "${dir} == 1" then    "change_box all x delta 0 ${delta} xy delta ${deltaxy} xz delta ${deltaxz} remap units box"
if "${dir} == 2" then    "change_box all y delta 0 ${delta} yz delta ${deltayz} remap units box"
change_box all y delta 0 ${delta} yz delta ${deltayz} remap units box
change_box all y delta 0 -0.26336566462608 yz delta ${deltayz} remap units box
change_box all y delta 0 -0.26336566462608 yz delta -0.00620503628325578 remap units box
Changing box ...
WARNING: Triclinic box skew is large. LAMMPS will run inefficiently. (src/domain.cpp:221)
  triclinic box = (-0.21174407 -0.17156862 -0.21884164) to (17.353452 12.733349 17.805499) with tilt (-8.6062176 0.031275459 0.31025181)
WARNING: Triclinic box skew is large. LAMMPS will run inefficiently. (src/domain.cpp:221)
  triclinic box = (-0.21174407 -0.17156862 -0.21884164) to (17.353452 12.733349 17.805499) with tilt (-8.6062176 0.031275459 0.30404678)
if "${dir} == 3" then    "change_box all z delta 0 ${delta} remap units box"
if "${dir} == 4" then    "change_box all yz delta ${delta} remap units box"
if "${dir} == 5" then    "change_box all xz delta ${delta} remap units box"
if "${dir} == 6" then    "change_box all xy delta ${delta} remap units box"

# Relax atoms positions

minimize ${etol} ${ftol} ${maxiter} ${maxeval}
minimize 0 ${ftol} ${maxiter} ${maxeval}
minimize 0 1e-10 ${maxiter} ${maxeval}
minimize 0 1e-10 100000 ${maxeval}
minimize 0 1e-10 100000 100000
Generated 6 of 6 mixed pair_coeff terms from arithmetic mixing rule
Neighbor list info ...
  update: every = 1 steps, delay = 0 steps, check = yes
  max neighbors/atom: 2000, page size: 100000
  master list distance cutoff = 7
  ghost atom cutoff = 7
  binsize = 3.5, bins = 8 4 6
  1 neighbor lists, perpetual/occasional/extra = 1 0 0
  (1) pair lj/cut, perpetual
      attributes: half, newton on
      pair build: half/bin/newton/tri
      stencil: half/bin/3d/tri
      bin: standard
WARNING: Inconsistent image flags
For more information see https://docs.lammps.org/err0027 (src/domain.cpp:1052)
Per MPI rank memory allocation (min/avg/max) = 17.52 | 17.52 | 17.52 Mbytes
   Step          Temp          E_pair         E_mol          TotEng         Press     
    250108   314.05787     -398.99755      754.36138      693.31285      28360.717    
    250163   314.05787     -447.97676      473.34429      363.31655      7031.4186    
Loop time of 0.0405532 on 1 procs for 55 steps with 362 atoms

100.0% CPU use with 1 MPI tasks x 1 OpenMP threads

Minimization stats:
  Stopping criterion = linesearch alpha is zero
  Energy initial, next-to-last, final = 
       355.36382962548   25.3675346827603   25.3675346827603
  Force two-norm initial, final = 649.3172 11.766141
  Force max component initial, final = 72.263873 1.5495541
  Final line search alpha, max atom move = 8.2074761e-11 1.2717928e-10
  Iterations, force evaluations = 55 162

MPI task timing breakdown:
Section |  min time  |  avg time  |  max time  |%varavg| %total
---------------------------------------------------------------
Pair    | 0.028561   | 0.028561   | 0.028561   |   0.0 | 70.43
Bond    | 0.00772    | 0.00772    | 0.00772    |   0.0 | 19.04
Neigh   | 0.0025555  | 0.0025555  | 0.0025555  |   0.0 |  6.30
Comm    | 0.00097521 | 0.00097521 | 0.00097521 |   0.0 |  2.40
Output  | 0          | 0          | 0          |   0.0 |  0.00
Modify  | 0          | 0          | 0          |   0.0 |  0.00
Other   |            | 0.0007419  |            |       |  1.83

Nlocal:            362 ave         362 max         362 min
Histogram: 1 0 0 0 0 0 0 0 0 0
Nghost:           2288 ave        2288 max        2288 min
Histogram: 1 0 0 0 0 0 0 0 0 0
Neighs:          21709 ave       21709 max       21709 min
Histogram: 1 0 0 0 0 0 0 0 0 0

Total # of neighbors = 21709
Ave neighs/atom = 59.969613
Ave special neighs/atom = 6.1878453
Neighbor list builds = 1
Dangerous builds = 0

# Obtain new stress tensor

variable tmp equal pxx
variable pxx1 equal ${tmp}
variable pxx1 equal 3677.56930906968
variable tmp equal pyy
variable pyy1 equal ${tmp}
variable pyy1 equal 13660.1078667789
variable tmp equal pzz
variable pzz1 equal ${tmp}
variable pzz1 equal 3756.57860370178
variable tmp equal pxy
variable pxy1 equal ${tmp}
variable pxy1 equal 176.948509953281
variable tmp equal pxz
variable pxz1 equal ${tmp}
variable pxz1 equal 3081.22332656745
variable tmp equal pyz
variable pyz1 equal ${tmp}
variable pyz1 equal -3376.51734963715

# Compute elastic constant from pressure tensor

variable C1neg equal ${d1}
variable C1neg equal 5.25431674468285
variable C2neg equal ${d2}
variable C2neg equal 43.55637235727
variable C3neg equal ${d3}
variable C3neg equal 6.81438383160345
variable C4neg equal ${d4}
variable C4neg equal 8.98519159836395
variable C5neg equal ${d5}
variable C5neg equal -1.2278999137869
variable C6neg equal ${d6}
variable C6neg equal -13.315333307331

# Reset box and simulation parameters

clear
OMP_NUM_THREADS environment is not set. Defaulting to 1 thread.
  using 1 OpenMP thread(s) per MPI task
box tilt large

The 'box' command has been removed and will be ignored

read_restart restart_333U-50C-1-vasp.equil
Reading restart file ...
  restart file = 10 Sep 2025, LAMMPS = 10 Sep 2025
  restoring atom style full from restart
  triclinic box = (-0.21174407 -0.17156862 -0.21884164) to (17.353452 12.996715 17.805499) with tilt (-8.6062176 0.031275459 0.31025181)
WARNING: Triclinic box skew is large. LAMMPS will run inefficiently. (src/domain.cpp:221)
  1 by 1 by 1 MPI processor grid
  restoring pair style lj/cut from restart
  restoring bond style harmonic from restart
  restoring angle style hybrid from restart
  restoring dihedral style harmonic from restart
  362 atoms
  387 bonds
  733 angles
  915 dihedrals
Finding 1-2 1-3 1-4 neighbors ...
  special bond factors lj:    0        0        1       
  special bond factors coul:  0        0        1       
     4 = max # of 1-2 neighbors
     8 = max # of 1-3 neighbors
    12 = max # of special neighbors
  special bonds CPU = 0.000 seconds
  read_restart CPU = 0.001 seconds
include ./input/angles_333U-50C-1-vasp.mod
angle_style hybrid fourier cosine/periodic
angle_coeff 1 fourier 114.246973        0.343737        0.374972        0.281246
angle_coeff 2 fourier 157.882480        0.343737        0.374972        0.281246
angle_coeff 3 fourier 221.735285        0.343737        0.374972        0.281246
angle_coeff 4 fourier 32.417871        0.343737        0.374972        0.281246
angle_coeff 5 fourier 83.380072        0.343737        0.374972        0.281246
angle_coeff 6 fourier 58.020602        0.343737        0.374972        0.281246
angle_coeff 7 fourier 90.420412        0.343737        0.374972        0.281246
angle_coeff 8 fourier 75.498766        0.343737        0.374972        0.281246
angle_coeff 9 cosine/periodic 88.853997              -1               3

# Positive deformation

variable delta equal ${up}*${len0}
variable delta equal 0.02*${len0}
variable delta equal 0.02*13.168283231304
variable deltaxy equal ${up}*xy
variable deltaxy equal 0.02*xy
variable deltaxz equal ${up}*xz
variable deltaxz equal 0.02*xz
variable deltayz equal ${up}*yz
variable deltayz equal 0.02*yz
if "${dir} == 1" then    "change_box all x delta 0 ${delta} xy delta ${deltaxy} xz delta ${deltaxz} remap units box"
if "${dir} == 2" then    "change_box all y delta 0 ${delta} yz delta ${deltayz} remap units box"
change_box all y delta 0 ${delta} yz delta ${deltayz} remap units box
change_box all y delta 0 0.26336566462608 yz delta ${deltayz} remap units box
change_box all y delta 0 0.26336566462608 yz delta 0.00620503628325578 remap units box
Changing box ...
WARNING: Triclinic box skew is large. LAMMPS will run inefficiently. (src/domain.cpp:221)
  triclinic box = (-0.21174407 -0.17156862 -0.21884164) to (17.353452 13.26008 17.805499) with tilt (-8.6062176 0.031275459 0.31025181)
WARNING: Triclinic box skew is large. LAMMPS will run inefficiently. (src/domain.cpp:221)
  triclinic box = (-0.21174407 -0.17156862 -0.21884164) to (17.353452 13.26008 17.805499) with tilt (-8.6062176 0.031275459 0.31645685)
if "${dir} == 3" then    "change_box all z delta 0 ${delta} remap units box"
if "${dir} == 4" then    "change_box all yz delta ${delta} remap units box"
if "${dir} == 5" then    "change_box all xz delta ${delta} remap units box"
if "${dir} == 6" then    "change_box all xy delta ${delta} remap units box"

# Relax atoms positions

minimize ${etol} ${ftol} ${maxiter} ${maxeval}
minimize 0 ${ftol} ${maxiter} ${maxeval}
minimize 0 1e-10 ${maxiter} ${maxeval}
minimize 0 1e-10 100000 ${maxeval}
minimize 0 1e-10 100000 100000
Generated 6 of 6 mixed pair_coeff terms from arithmetic mixing rule
Neighbor list info ...
  update: every = 1 steps, delay = 0 steps, check = yes
  max neighbors/atom: 2000, page size: 100000
  master list distance cutoff = 7
  ghost atom cutoff = 7
  binsize = 3.5, bins = 8 4 6
  1 neighbor lists, perpetual/occasional/extra = 1 0 0
  (1) pair lj/cut, perpetual
      attributes: half, newton on
      pair build: half/bin/newton/tri
      stencil: half/bin/3d/tri
      bin: standard
WARNING: Inconsistent image flags
For more information see https://docs.lammps.org/err0027 (src/domain.cpp:1052)
Per MPI rank memory allocation (min/avg/max) = 17.51 | 17.51 | 17.51 Mbytes
   Step          Temp          E_pair         E_mol          TotEng         Press     
    250108   314.05787     -437.24778      788.02315      688.72438     -20837.231    
    250147   314.05787     -472.56107      501.32636      366.71431     -6049.3926    
Loop time of 0.0299799 on 1 procs for 39 steps with 362 atoms

100.0% CPU use with 1 MPI tasks x 1 OpenMP threads

Minimization stats:
  Stopping criterion = linesearch alpha is zero
  Energy initial, next-to-last, final = 
      350.775368531135   28.7652891312571   28.7652891312571
  Force two-norm initial, final = 633.38444 17.709491
  Force max component initial, final = 70.064845 2.3670359
  Final line search alpha, max atom move = 3.4731332e-11 8.2210309e-11
  Iterations, force evaluations = 39 132

MPI task timing breakdown:
Section |  min time  |  avg time  |  max time  |%varavg| %total
---------------------------------------------------------------
Pair    | 0.022399   | 0.022399   | 0.022399   |   0.0 | 74.71
Bond    | 0.0063039  | 0.0063039  | 0.0063039  |   0.0 | 21.03
Neigh   | 0          | 0          | 0          |   0.0 |  0.00
Comm    | 0.00071268 | 0.00071268 | 0.00071268 |   0.0 |  2.38
Output  | 0          | 0          | 0          |   0.0 |  0.00
Modify  | 0          | 0          | 0          |   0.0 |  0.00
Other   |            | 0.0005639  |            |       |  1.88

Nlocal:            362 ave         362 max         362 min
Histogram: 1 0 0 0 0 0 0 0 0 0
Nghost:           2208 ave        2208 max        2208 min
Histogram: 1 0 0 0 0 0 0 0 0 0
Neighs:          20798 ave       20798 max       20798 min
Histogram: 1 0 0 0 0 0 0 0 0 0

Total # of neighbors = 20798
Ave neighs/atom = 57.453039
Ave special neighs/atom = 6.1878453
Neighbor list builds = 0
Dangerous builds = 0

# Obtain new stress tensor

variable tmp equal pe
variable e1 equal ${tmp}
variable e1 equal 28.7652891312571
variable tmp equal press
variable p1 equal ${tmp}
variable p1 equal -6049.39260231876
variable tmp equal pxx
variable pxx1 equal ${tmp}
variable pxx1 equal -4145.27274521649
variable tmp equal pyy
variable pyy1 equal ${tmp}
variable pyy1 equal -7770.08211935301
variable tmp equal pzz
variable pzz1 equal ${tmp}
variable pzz1 equal -6232.82294238679
variable tmp equal pxy
variable pxy1 equal ${tmp}
variable pxy1 equal 98.1462380407653
variable tmp equal pxz
variable pxz1 equal ${tmp}
variable pxz1 equal 1830.90557256896
variable tmp equal pyz
variable pyz1 equal ${tmp}
variable pyz1 equal -3422.56589369621

# Compute elastic constant from pressure tensor

variable C1pos equal ${d1}
variable C1pos equal 33.859893526748
variable C2pos equal ${d2}
variable C2pos equal 63.5945775733895
variable C3pos equal ${d3}
variable C3pos equal 43.1326238988394
variable C4pos equal ${d4}
variable C4pos equal -8.75494887806865
variable C5pos equal ${d5}
variable C5pos equal 7.47948868377935
variable C6pos equal ${d6}
variable C6pos equal 13.7093446668936

# Combine positive and negative

variable C1${dir} equal 0.5*(${C1neg}+${C1pos})
variable C12 equal 0.5*(${C1neg}+${C1pos})
variable C12 equal 0.5*(5.25431674468285+${C1pos})
variable C12 equal 0.5*(5.25431674468285+33.859893526748)
variable C2${dir} equal 0.5*(${C2neg}+${C2pos})
variable C22 equal 0.5*(${C2neg}+${C2pos})
variable C22 equal 0.5*(43.55637235727+${C2pos})
variable C22 equal 0.5*(43.55637235727+63.5945775733895)
variable C3${dir} equal 0.5*(${C3neg}+${C3pos})
variable C32 equal 0.5*(${C3neg}+${C3pos})
variable C32 equal 0.5*(6.81438383160345+${C3pos})
variable C32 equal 0.5*(6.81438383160345+43.1326238988394)
variable C4${dir} equal 0.5*(${C4neg}+${C4pos})
variable C42 equal 0.5*(${C4neg}+${C4pos})
variable C42 equal 0.5*(8.98519159836395+${C4pos})
variable C42 equal 0.5*(8.98519159836395+-8.75494887806865)
variable C5${dir} equal 0.5*(${C5neg}+${C5pos})
variable C52 equal 0.5*(${C5neg}+${C5pos})
variable C52 equal 0.5*(-1.2278999137869+${C5pos})
variable C52 equal 0.5*(-1.2278999137869+7.47948868377935)
variable C6${dir} equal 0.5*(${C6neg}+${C6pos})
variable C62 equal 0.5*(${C6neg}+${C6pos})
variable C62 equal 0.5*(-13.315333307331+${C6pos})
variable C62 equal 0.5*(-13.315333307331+13.7093446668936)

# Delete dir to make sure it is not reused

variable dir delete

# uzz Perturbation

variable dir equal 3
include ./input/displace_333U-50C-1-vasp.mod
if "${dir} == 1" then    "variable len0 equal ${lx0}"
if "${dir} == 2" then    "variable len0 equal ${ly0}"
if "${dir} == 3" then    "variable len0 equal ${lz0}"
variable len0 equal ${lz0}
variable len0 equal 18.0243402748072
if "${dir} == 4" then    "variable len0 equal ${lz0}"
if "${dir} == 5" then    "variable len0 equal ${lz0}"
if "${dir} == 6" then    "variable len0 equal ${ly0}"

# Reset box and simulation parameters

clear
OMP_NUM_THREADS environment is not set. Defaulting to 1 thread.
  using 1 OpenMP thread(s) per MPI task
box tilt large

The 'box' command has been removed and will be ignored

read_restart restart_333U-50C-1-vasp.equil
Reading restart file ...
  restart file = 10 Sep 2025, LAMMPS = 10 Sep 2025
  restoring atom style full from restart
  triclinic box = (-0.21174407 -0.17156862 -0.21884164) to (17.353452 12.996715 17.805499) with tilt (-8.6062176 0.031275459 0.31025181)
WARNING: Triclinic box skew is large. LAMMPS will run inefficiently. (src/domain.cpp:221)
  1 by 1 by 1 MPI processor grid
  restoring pair style lj/cut from restart
  restoring bond style harmonic from restart
  restoring angle style hybrid from restart
  restoring dihedral style harmonic from restart
  362 atoms
  387 bonds
  733 angles
  915 dihedrals
Finding 1-2 1-3 1-4 neighbors ...
  special bond factors lj:    0        0        1       
  special bond factors coul:  0        0        1       
     4 = max # of 1-2 neighbors
     8 = max # of 1-3 neighbors
    12 = max # of special neighbors
  special bonds CPU = 0.000 seconds
  read_restart CPU = 0.001 seconds
include ./input/angles_333U-50C-1-vasp.mod
angle_style hybrid fourier cosine/periodic
angle_coeff 1 fourier 114.246973        0.343737        0.374972        0.281246
angle_coeff 2 fourier 157.882480        0.343737        0.374972        0.281246
angle_coeff 3 fourier 221.735285        0.343737        0.374972        0.281246
angle_coeff 4 fourier 32.417871        0.343737        0.374972        0.281246
angle_coeff 5 fourier 83.380072        0.343737        0.374972        0.281246
angle_coeff 6 fourier 58.020602        0.343737        0.374972        0.281246
angle_coeff 7 fourier 90.420412        0.343737        0.374972        0.281246
angle_coeff 8 fourier 75.498766        0.343737        0.374972        0.281246
angle_coeff 9 cosine/periodic 88.853997              -1               3

# Negative deformation

variable delta equal -${up}*${len0}
variable delta equal -0.02*${len0}
variable delta equal -0.02*18.0243402748072
variable deltaxy equal -${up}*xy
variable deltaxy equal -0.02*xy
variable deltaxz equal -${up}*xz
variable deltaxz equal -0.02*xz
variable deltayz equal -${up}*yz
variable deltayz equal -0.02*yz
if "${dir} == 1" then    "change_box all x delta 0 ${delta} xy delta ${deltaxy} xz delta ${deltaxz} remap units box"
if "${dir} == 2" then    "change_box all y delta 0 ${delta} yz delta ${deltayz} remap units box"
if "${dir} == 3" then    "change_box all z delta 0 ${delta} remap units box"
change_box all z delta 0 ${delta} remap units box
change_box all z delta 0 -0.360486805496144 remap units box
Changing box ...
WARNING: Triclinic box skew is large. LAMMPS will run inefficiently. (src/domain.cpp:221)
  triclinic box = (-0.21174407 -0.17156862 -0.21884164) to (17.353452 12.996715 17.445012) with tilt (-8.6062176 0.031275459 0.31025181)
if "${dir} == 4" then    "change_box all yz delta ${delta} remap units box"
if "${dir} == 5" then    "change_box all xz delta ${delta} remap units box"
if "${dir} == 6" then    "change_box all xy delta ${delta} remap units box"

# Relax atoms positions

minimize ${etol} ${ftol} ${maxiter} ${maxeval}
minimize 0 ${ftol} ${maxiter} ${maxeval}
minimize 0 1e-10 ${maxiter} ${maxeval}
minimize 0 1e-10 100000 ${maxeval}
minimize 0 1e-10 100000 100000
Generated 6 of 6 mixed pair_coeff terms from arithmetic mixing rule
Neighbor list info ...
  update: every = 1 steps, delay = 0 steps, check = yes
  max neighbors/atom: 2000, page size: 100000
  master list distance cutoff = 7
  ghost atom cutoff = 7
  binsize = 3.5, bins = 8 4 6
  1 neighbor lists, perpetual/occasional/extra = 1 0 0
  (1) pair lj/cut, perpetual
      attributes: half, newton on
      pair build: half/bin/newton/tri
      stencil: half/bin/3d/tri
      bin: standard
WARNING: Inconsistent image flags
For more information see https://docs.lammps.org/err0027 (src/domain.cpp:1052)
Per MPI rank memory allocation (min/avg/max) = 17.52 | 17.52 | 17.52 Mbytes
   Step          Temp          E_pair         E_mol          TotEng         Press     
    250108   314.05787     -398.65876      748.2528       687.54305      28547.197    
    250148   314.05787     -451.14217      473.2441       360.05094      7240.1589    
Loop time of 0.0252055 on 1 procs for 40 steps with 362 atoms

100.0% CPU use with 1 MPI tasks x 1 OpenMP threads

Minimization stats:
  Stopping criterion = linesearch alpha is zero
  Energy initial, next-to-last, final = 
       349.59403737015   22.1019278796225   22.1019278796225
  Force two-norm initial, final = 626.94159 18.475124
  Force max component initial, final = 67.799095 2.4866382
  Final line search alpha, max atom move = 3.2521771e-11 8.0869878e-11
  Iterations, force evaluations = 40 134

MPI task timing breakdown:
Section |  min time  |  avg time  |  max time  |%varavg| %total
---------------------------------------------------------------
Pair    | 0.018891   | 0.018891   | 0.018891   |   0.0 | 74.95
Bond    | 0.0051679  | 0.0051679  | 0.0051679  |   0.0 | 20.50
Neigh   | 0          | 0          | 0          |   0.0 |  0.00
Comm    | 0.00067053 | 0.00067053 | 0.00067053 |   0.0 |  2.66
Output  | 0          | 0          | 0          |   0.0 |  0.00
Modify  | 0          | 0          | 0          |   0.0 |  0.00
Other   |            | 0.0004758  |            |       |  1.89

Nlocal:            362 ave         362 max         362 min
Histogram: 1 0 0 0 0 0 0 0 0 0
Nghost:           2274 ave        2274 max        2274 min
Histogram: 1 0 0 0 0 0 0 0 0 0
Neighs:          21637 ave       21637 max       21637 min
Histogram: 1 0 0 0 0 0 0 0 0 0

Total # of neighbors = 21637
Ave neighs/atom = 59.770718
Ave special neighs/atom = 6.1878453
Neighbor list builds = 0
Dangerous builds = 0

# Obtain new stress tensor

variable tmp equal pxx
variable pxx1 equal ${tmp}
variable pxx1 equal 3231.03131590145
variable tmp equal pyy
variable pyy1 equal ${tmp}
variable pyy1 equal 8016.44845630595
variable tmp equal pzz
variable pzz1 equal ${tmp}
variable pzz1 equal 10472.9970239949
variable tmp equal pxy
variable pxy1 equal ${tmp}
variable pxy1 equal 21.3238945236748
variable tmp equal pxz
variable pxz1 equal ${tmp}
variable pxz1 equal 2257.29655044497
variable tmp equal pyz
variable pyz1 equal ${tmp}
variable pyz1 equal -2931.27062944026

# Compute elastic constant from pressure tensor

variable C1neg equal ${d1}
variable C1neg equal 3.0216267788417
variable C2neg equal ${d2}
variable C2neg equal 15.3380753049053
variable C3neg equal ${d3}
variable C3neg equal 40.3964759330691
variable C4neg equal ${d4}
variable C4neg equal 11.2114251993484
variable C5neg equal ${d5}
variable C5neg equal -5.3475337943993
variable C6neg equal ${d6}
variable C6neg equal -14.093456384479

# Reset box and simulation parameters

clear
OMP_NUM_THREADS environment is not set. Defaulting to 1 thread.
  using 1 OpenMP thread(s) per MPI task
box tilt large

The 'box' command has been removed and will be ignored

read_restart restart_333U-50C-1-vasp.equil
Reading restart file ...
  restart file = 10 Sep 2025, LAMMPS = 10 Sep 2025
  restoring atom style full from restart
  triclinic box = (-0.21174407 -0.17156862 -0.21884164) to (17.353452 12.996715 17.805499) with tilt (-8.6062176 0.031275459 0.31025181)
WARNING: Triclinic box skew is large. LAMMPS will run inefficiently. (src/domain.cpp:221)
  1 by 1 by 1 MPI processor grid
  restoring pair style lj/cut from restart
  restoring bond style harmonic from restart
  restoring angle style hybrid from restart
  restoring dihedral style harmonic from restart
  362 atoms
  387 bonds
  733 angles
  915 dihedrals
Finding 1-2 1-3 1-4 neighbors ...
  special bond factors lj:    0        0        1       
  special bond factors coul:  0        0        1       
     4 = max # of 1-2 neighbors
     8 = max # of 1-3 neighbors
    12 = max # of special neighbors
  special bonds CPU = 0.000 seconds
  read_restart CPU = 0.001 seconds
include ./input/angles_333U-50C-1-vasp.mod
angle_style hybrid fourier cosine/periodic
angle_coeff 1 fourier 114.246973        0.343737        0.374972        0.281246
angle_coeff 2 fourier 157.882480        0.343737        0.374972        0.281246
angle_coeff 3 fourier 221.735285        0.343737        0.374972        0.281246
angle_coeff 4 fourier 32.417871        0.343737        0.374972        0.281246
angle_coeff 5 fourier 83.380072        0.343737        0.374972        0.281246
angle_coeff 6 fourier 58.020602        0.343737        0.374972        0.281246
angle_coeff 7 fourier 90.420412        0.343737        0.374972        0.281246
angle_coeff 8 fourier 75.498766        0.343737        0.374972        0.281246
angle_coeff 9 cosine/periodic 88.853997              -1               3

# Positive deformation

variable delta equal ${up}*${len0}
variable delta equal 0.02*${len0}
variable delta equal 0.02*18.0243402748072
variable deltaxy equal ${up}*xy
variable deltaxy equal 0.02*xy
variable deltaxz equal ${up}*xz
variable deltaxz equal 0.02*xz
variable deltayz equal ${up}*yz
variable deltayz equal 0.02*yz
if "${dir} == 1" then    "change_box all x delta 0 ${delta} xy delta ${deltaxy} xz delta ${deltaxz} remap units box"
if "${dir} == 2" then    "change_box all y delta 0 ${delta} yz delta ${deltayz} remap units box"
if "${dir} == 3" then    "change_box all z delta 0 ${delta} remap units box"
change_box all z delta 0 ${delta} remap units box
change_box all z delta 0 0.360486805496144 remap units box
Changing box ...
WARNING: Triclinic box skew is large. LAMMPS will run inefficiently. (src/domain.cpp:221)
  triclinic box = (-0.21174407 -0.17156862 -0.21884164) to (17.353452 12.996715 18.165985) with tilt (-8.6062176 0.031275459 0.31025181)
if "${dir} == 4" then    "change_box all yz delta ${delta} remap units box"
if "${dir} == 5" then    "change_box all xz delta ${delta} remap units box"
if "${dir} == 6" then    "change_box all xy delta ${delta} remap units box"

# Relax atoms positions

minimize ${etol} ${ftol} ${maxiter} ${maxeval}
minimize 0 ${ftol} ${maxiter} ${maxeval}
minimize 0 1e-10 ${maxiter} ${maxeval}
minimize 0 1e-10 100000 ${maxeval}
minimize 0 1e-10 100000 100000
Generated 6 of 6 mixed pair_coeff terms from arithmetic mixing rule
Neighbor list info ...
  update: every = 1 steps, delay = 0 steps, check = yes
  max neighbors/atom: 2000, page size: 100000
  master list distance cutoff = 7
  ghost atom cutoff = 7
  binsize = 3.5, bins = 8 4 6
  1 neighbor lists, perpetual/occasional/extra = 1 0 0
  (1) pair lj/cut, perpetual
      attributes: half, newton on
      pair build: half/bin/newton/tri
      stencil: half/bin/3d/tri
      bin: standard
WARNING: Inconsistent image flags
For more information see https://docs.lammps.org/err0027 (src/domain.cpp:1052)
Per MPI rank memory allocation (min/avg/max) = 17.51 | 17.51 | 17.51 Mbytes
   Step          Temp          E_pair         E_mol          TotEng         Press     
    250108   314.05787     -439.85885      792.17751      690.26767     -21041.134    
    250147   314.05787     -471.29086      503.89344      370.55159     -5863.7525    
Loop time of 0.0218093 on 1 procs for 39 steps with 362 atoms

100.0% CPU use with 1 MPI tasks x 1 OpenMP threads

Minimization stats:
  Stopping criterion = linesearch alpha is zero
  Energy initial, next-to-last, final = 
      352.318653232465   32.6025741698069   32.6025741698069
  Force two-norm initial, final = 652.66958 17.233902
  Force max component initial, final = 74.021786 2.3430184
  Final line search alpha, max atom move = 3.1517394e-11 7.3845834e-11
  Iterations, force evaluations = 39 132

MPI task timing breakdown:
Section |  min time  |  avg time  |  max time  |%varavg| %total
---------------------------------------------------------------
Pair    | 0.016177   | 0.016177   | 0.016177   |   0.0 | 74.17
Bond    | 0.0046575  | 0.0046575  | 0.0046575  |   0.0 | 21.36
Neigh   | 0          | 0          | 0          |   0.0 |  0.00
Comm    | 0.00056126 | 0.00056126 | 0.00056126 |   0.0 |  2.57
Output  | 0          | 0          | 0          |   0.0 |  0.00
Modify  | 0          | 0          | 0          |   0.0 |  0.00
Other   |            | 0.0004139  |            |       |  1.90

Nlocal:            362 ave         362 max         362 min
Histogram: 1 0 0 0 0 0 0 0 0 0
Nghost:           2220 ave        2220 max        2220 min
Histogram: 1 0 0 0 0 0 0 0 0 0
Neighs:          20780 ave       20780 max       20780 min
Histogram: 1 0 0 0 0 0 0 0 0 0

Total # of neighbors = 20780
Ave neighs/atom = 57.403315
Ave special neighs/atom = 6.1878453
Neighbor list builds = 0
Dangerous builds = 0

# Obtain new stress tensor

variable tmp equal pe
variable e1 equal ${tmp}
variable e1 equal 32.6025741698069
variable tmp equal press
variable p1 equal ${tmp}
variable p1 equal -5863.75246687332
variable tmp equal pxx
variable pxx1 equal ${tmp}
variable pxx1 equal -3635.90717771939
variable tmp equal pyy
variable pyy1 equal ${tmp}
variable pyy1 equal -2046.31115216573
variable tmp equal pzz
variable pzz1 equal ${tmp}
variable pzz1 equal -11909.0390707348
variable tmp equal pxy
variable pxy1 equal ${tmp}
variable pxy1 equal -233.056392451937
variable tmp equal pxz
variable pxz1 equal ${tmp}
variable pxz1 equal 2283.8289240428
variable tmp equal pyz
variable pyz1 equal ${tmp}
variable pyz1 equal -4575.98275126819

# Compute elastic constant from pressure tensor

variable C1pos equal ${d1}
variable C1pos equal 31.3130656892625
variable C2pos equal ${d2}
variable C2pos equal 34.9757227374531
variable C3pos equal ${d3}
variable C3pos equal 71.5137045405795
variable C4pos equal ${d4}
variable C4pos equal -2.98786459020875
variable C5pos equal ${d5}
variable C5pos equal 5.21487192641015
variable C6pos equal ${d6}
variable C6pos equal 15.3653578193571

# Combine positive and negative

variable C1${dir} equal 0.5*(${C1neg}+${C1pos})
variable C13 equal 0.5*(${C1neg}+${C1pos})
variable C13 equal 0.5*(3.0216267788417+${C1pos})
variable C13 equal 0.5*(3.0216267788417+31.3130656892625)
variable C2${dir} equal 0.5*(${C2neg}+${C2pos})
variable C23 equal 0.5*(${C2neg}+${C2pos})
variable C23 equal 0.5*(15.3380753049053+${C2pos})
variable C23 equal 0.5*(15.3380753049053+34.9757227374531)
variable C3${dir} equal 0.5*(${C3neg}+${C3pos})
variable C33 equal 0.5*(${C3neg}+${C3pos})
variable C33 equal 0.5*(40.3964759330691+${C3pos})
variable C33 equal 0.5*(40.3964759330691+71.5137045405795)
variable C4${dir} equal 0.5*(${C4neg}+${C4pos})
variable C43 equal 0.5*(${C4neg}+${C4pos})
variable C43 equal 0.5*(11.2114251993484+${C4pos})
variable C43 equal 0.5*(11.2114251993484+-2.98786459020875)
variable C5${dir} equal 0.5*(${C5neg}+${C5pos})
variable C53 equal 0.5*(${C5neg}+${C5pos})
variable C53 equal 0.5*(-5.3475337943993+${C5pos})
variable C53 equal 0.5*(-5.3475337943993+5.21487192641015)
variable C6${dir} equal 0.5*(${C6neg}+${C6pos})
variable C63 equal 0.5*(${C6neg}+${C6pos})
variable C63 equal 0.5*(-14.093456384479+${C6pos})
variable C63 equal 0.5*(-14.093456384479+15.3653578193571)

# Delete dir to make sure it is not reused

variable dir delete

# uyz Perturbation

variable dir equal 4
include ./input/displace_333U-50C-1-vasp.mod
if "${dir} == 1" then    "variable len0 equal ${lx0}"
if "${dir} == 2" then    "variable len0 equal ${ly0}"
if "${dir} == 3" then    "variable len0 equal ${lz0}"
if "${dir} == 4" then    "variable len0 equal ${lz0}"
variable len0 equal ${lz0}
variable len0 equal 18.0243402748072
if "${dir} == 5" then    "variable len0 equal ${lz0}"
if "${dir} == 6" then    "variable len0 equal ${ly0}"

# Reset box and simulation parameters

clear
OMP_NUM_THREADS environment is not set. Defaulting to 1 thread.
  using 1 OpenMP thread(s) per MPI task
box tilt large

The 'box' command has been removed and will be ignored

read_restart restart_333U-50C-1-vasp.equil
Reading restart file ...
  restart file = 10 Sep 2025, LAMMPS = 10 Sep 2025
  restoring atom style full from restart
  triclinic box = (-0.21174407 -0.17156862 -0.21884164) to (17.353452 12.996715 17.805499) with tilt (-8.6062176 0.031275459 0.31025181)
WARNING: Triclinic box skew is large. LAMMPS will run inefficiently. (src/domain.cpp:221)
  1 by 1 by 1 MPI processor grid
  restoring pair style lj/cut from restart
  restoring bond style harmonic from restart
  restoring angle style hybrid from restart
  restoring dihedral style harmonic from restart
  362 atoms
  387 bonds
  733 angles
  915 dihedrals
Finding 1-2 1-3 1-4 neighbors ...
  special bond factors lj:    0        0        1       
  special bond factors coul:  0        0        1       
     4 = max # of 1-2 neighbors
     8 = max # of 1-3 neighbors
    12 = max # of special neighbors
  special bonds CPU = 0.000 seconds
  read_restart CPU = 0.001 seconds
include ./input/angles_333U-50C-1-vasp.mod
angle_style hybrid fourier cosine/periodic
angle_coeff 1 fourier 114.246973        0.343737        0.374972        0.281246
angle_coeff 2 fourier 157.882480        0.343737        0.374972        0.281246
angle_coeff 3 fourier 221.735285        0.343737        0.374972        0.281246
angle_coeff 4 fourier 32.417871        0.343737        0.374972        0.281246
angle_coeff 5 fourier 83.380072        0.343737        0.374972        0.281246
angle_coeff 6 fourier 58.020602        0.343737        0.374972        0.281246
angle_coeff 7 fourier 90.420412        0.343737        0.374972        0.281246
angle_coeff 8 fourier 75.498766        0.343737        0.374972        0.281246
angle_coeff 9 cosine/periodic 88.853997              -1               3

# Negative deformation

variable delta equal -${up}*${len0}
variable delta equal -0.02*${len0}
variable delta equal -0.02*18.0243402748072
variable deltaxy equal -${up}*xy
variable deltaxy equal -0.02*xy
variable deltaxz equal -${up}*xz
variable deltaxz equal -0.02*xz
variable deltayz equal -${up}*yz
variable deltayz equal -0.02*yz
if "${dir} == 1" then    "change_box all x delta 0 ${delta} xy delta ${deltaxy} xz delta ${deltaxz} remap units box"
if "${dir} == 2" then    "change_box all y delta 0 ${delta} yz delta ${deltayz} remap units box"
if "${dir} == 3" then    "change_box all z delta 0 ${delta} remap units box"
if "${dir} == 4" then    "change_box all yz delta ${delta} remap units box"
change_box all yz delta ${delta} remap units box
change_box all yz delta -0.360486805496144 remap units box
Changing box ...
WARNING: Triclinic box skew is large. LAMMPS will run inefficiently. (src/domain.cpp:221)
  triclinic box = (-0.21174407 -0.17156862 -0.21884164) to (17.353452 12.996715 17.805499) with tilt (-8.6062176 0.031275459 -0.050234991)
if "${dir} == 5" then    "change_box all xz delta ${delta} remap units box"
if "${dir} == 6" then    "change_box all xy delta ${delta} remap units box"

# Relax atoms positions

minimize ${etol} ${ftol} ${maxiter} ${maxeval}
minimize 0 ${ftol} ${maxiter} ${maxeval}
minimize 0 1e-10 ${maxiter} ${maxeval}
minimize 0 1e-10 100000 ${maxeval}
minimize 0 1e-10 100000 100000
Generated 6 of 6 mixed pair_coeff terms from arithmetic mixing rule
Neighbor list info ...
  update: every = 1 steps, delay = 0 steps, check = yes
  max neighbors/atom: 2000, page size: 100000
  master list distance cutoff = 7
  ghost atom cutoff = 7
  binsize = 3.5, bins = 8 4 6
  1 neighbor lists, perpetual/occasional/extra = 1 0 0
  (1) pair lj/cut, perpetual
      attributes: half, newton on
      pair build: half/bin/newton/tri
      stencil: half/bin/3d/tri
      bin: standard
WARNING: Inconsistent image flags
For more information see https://docs.lammps.org/err0027 (src/domain.cpp:1052)
Per MPI rank memory allocation (min/avg/max) = 17.52 | 17.52 | 17.52 Mbytes
   Step          Temp          E_pair         E_mol          TotEng         Press     
    250108   314.05787     -421.22805      748.54398      665.26494      3115.6383    
    250152   314.05787     -462.2162       480.87891      356.61172      343.80887    
Loop time of 0.0242772 on 1 procs for 44 steps with 362 atoms

100.0% CPU use with 1 MPI tasks x 1 OpenMP threads

Minimization stats:
  Stopping criterion = linesearch alpha is zero
  Energy initial, next-to-last, final = 
      327.315926892638   18.6627027480998   18.6627027480998
  Force two-norm initial, final = 629.9241 13.743968
  Force max component initial, final = 69.483741 1.7741514
  Final line search alpha, max atom move = 3.7745631e-11 6.6966464e-11
  Iterations, force evaluations = 44 142

MPI task timing breakdown:
Section |  min time  |  avg time  |  max time  |%varavg| %total
---------------------------------------------------------------
Pair    | 0.018121   | 0.018121   | 0.018121   |   0.0 | 74.64
Bond    | 0.00508    | 0.00508    | 0.00508    |   0.0 | 20.93
Neigh   | 0          | 0          | 0          |   0.0 |  0.00
Comm    | 0.00060745 | 0.00060745 | 0.00060745 |   0.0 |  2.50
Output  | 0          | 0          | 0          |   0.0 |  0.00
Modify  | 0          | 0          | 0          |   0.0 |  0.00
Other   |            | 0.0004691  |            |       |  1.93

Nlocal:            362 ave         362 max         362 min
Histogram: 1 0 0 0 0 0 0 0 0 0
Nghost:           2248 ave        2248 max        2248 min
Histogram: 1 0 0 0 0 0 0 0 0 0
Neighs:          21218 ave       21218 max       21218 min
Histogram: 1 0 0 0 0 0 0 0 0 0

Total # of neighbors = 21218
Ave neighs/atom = 58.61326
Ave special neighs/atom = 6.1878453
Neighbor list builds = 0
Dangerous builds = 0

# Obtain new stress tensor

variable tmp equal pxx
variable pxx1 equal ${tmp}
variable pxx1 equal -397.169239766244
variable tmp equal pyy
variable pyy1 equal ${tmp}
variable pyy1 equal 2155.93439798013
variable tmp equal pzz
variable pzz1 equal ${tmp}
variable pzz1 equal -727.338544894746
variable tmp equal pxy
variable pxy1 equal ${tmp}
variable pxy1 equal 433.334892018385
variable tmp equal pxz
variable pxz1 equal ${tmp}
variable pxz1 equal 2214.42537910725
variable tmp equal pyz
variable pyz1 equal ${tmp}
variable pyz1 equal 114.938444763383

# Compute elastic constant from pressure tensor

variable C1neg equal ${d1}
variable C1neg equal -15.1193759994968
variable C2neg equal ${d2}
variable C2neg equal -13.9644949867238
variable C3neg equal ${d3}
variable C3neg equal -15.6052019113792
variable C4neg equal ${d4}
variable C4neg equal 26.4424705703666
variable C5neg equal ${d5}
variable C5neg equal -5.5618896510879
variable C6neg equal ${d6}
variable C6neg equal -12.0334013970055

# Reset box and simulation parameters

clear
OMP_NUM_THREADS environment is not set. Defaulting to 1 thread.
  using 1 OpenMP thread(s) per MPI task
box tilt large

The 'box' command has been removed and will be ignored

read_restart restart_333U-50C-1-vasp.equil
Reading restart file ...
  restart file = 10 Sep 2025, LAMMPS = 10 Sep 2025
  restoring atom style full from restart
  triclinic box = (-0.21174407 -0.17156862 -0.21884164) to (17.353452 12.996715 17.805499) with tilt (-8.6062176 0.031275459 0.31025181)
WARNING: Triclinic box skew is large. LAMMPS will run inefficiently. (src/domain.cpp:221)
  1 by 1 by 1 MPI processor grid
  restoring pair style lj/cut from restart
  restoring bond style harmonic from restart
  restoring angle style hybrid from restart
  restoring dihedral style harmonic from restart
  362 atoms
  387 bonds
  733 angles
  915 dihedrals
Finding 1-2 1-3 1-4 neighbors ...
  special bond factors lj:    0        0        1       
  special bond factors coul:  0        0        1       
     4 = max # of 1-2 neighbors
     8 = max # of 1-3 neighbors
    12 = max # of special neighbors
  special bonds CPU = 0.000 seconds
  read_restart CPU = 0.001 seconds
include ./input/angles_333U-50C-1-vasp.mod
angle_style hybrid fourier cosine/periodic
angle_coeff 1 fourier 114.246973        0.343737        0.374972        0.281246
angle_coeff 2 fourier 157.882480        0.343737        0.374972        0.281246
angle_coeff 3 fourier 221.735285        0.343737        0.374972        0.281246
angle_coeff 4 fourier 32.417871        0.343737        0.374972        0.281246
angle_coeff 5 fourier 83.380072        0.343737        0.374972        0.281246
angle_coeff 6 fourier 58.020602        0.343737        0.374972        0.281246
angle_coeff 7 fourier 90.420412        0.343737        0.374972        0.281246
angle_coeff 8 fourier 75.498766        0.343737        0.374972        0.281246
angle_coeff 9 cosine/periodic 88.853997              -1               3

# Positive deformation

variable delta equal ${up}*${len0}
variable delta equal 0.02*${len0}
variable delta equal 0.02*18.0243402748072
variable deltaxy equal ${up}*xy
variable deltaxy equal 0.02*xy
variable deltaxz equal ${up}*xz
variable deltaxz equal 0.02*xz
variable deltayz equal ${up}*yz
variable deltayz equal 0.02*yz
if "${dir} == 1" then    "change_box all x delta 0 ${delta} xy delta ${deltaxy} xz delta ${deltaxz} remap units box"
if "${dir} == 2" then    "change_box all y delta 0 ${delta} yz delta ${deltayz} remap units box"
if "${dir} == 3" then    "change_box all z delta 0 ${delta} remap units box"
if "${dir} == 4" then    "change_box all yz delta ${delta} remap units box"
change_box all yz delta ${delta} remap units box
change_box all yz delta 0.360486805496144 remap units box
Changing box ...
WARNING: Triclinic box skew is large. LAMMPS will run inefficiently. (src/domain.cpp:221)
  triclinic box = (-0.21174407 -0.17156862 -0.21884164) to (17.353452 12.996715 17.805499) with tilt (-8.6062176 0.031275459 0.67073862)
if "${dir} == 5" then    "change_box all xz delta ${delta} remap units box"
if "${dir} == 6" then    "change_box all xy delta ${delta} remap units box"

# Relax atoms positions

minimize ${etol} ${ftol} ${maxiter} ${maxeval}
minimize 0 ${ftol} ${maxiter} ${maxeval}
minimize 0 1e-10 ${maxiter} ${maxeval}
minimize 0 1e-10 100000 ${maxeval}
minimize 0 1e-10 100000 100000
Generated 6 of 6 mixed pair_coeff terms from arithmetic mixing rule
Neighbor list info ...
  update: every = 1 steps, delay = 0 steps, check = yes
  max neighbors/atom: 2000, page size: 100000
  master list distance cutoff = 7
  ghost atom cutoff = 7
  binsize = 3.5, bins = 8 4 6
  1 neighbor lists, perpetual/occasional/extra = 1 0 0
  (1) pair lj/cut, perpetual
      attributes: half, newton on
      pair build: half/bin/newton/tri
      stencil: half/bin/3d/tri
      bin: standard
WARNING: Inconsistent image flags
For more information see https://docs.lammps.org/err0027 (src/domain.cpp:1052)
Per MPI rank memory allocation (min/avg/max) = 17.52 | 17.52 | 17.52 Mbytes
   Step          Temp          E_pair         E_mol          TotEng         Press     
    250108   314.05787     -420.3291       760.52179      678.14171      3190.1612    
    250154   314.05787     -463.40332      489.94961      364.49531     -198.05531    
Loop time of 0.0252622 on 1 procs for 46 steps with 362 atoms

100.0% CPU use with 1 MPI tasks x 1 OpenMP threads

Minimization stats:
  Stopping criterion = linesearch alpha is zero
  Energy initial, next-to-last, final = 
      340.192696031639   26.5462936627588   26.5462936627588
  Force two-norm initial, final = 623.93626 16.21449
  Force max component initial, final = 70.548949 2.4204038
  Final line search alpha, max atom move = 3.1798526e-11 7.6965275e-11
  Iterations, force evaluations = 46 146

MPI task timing breakdown:
Section |  min time  |  avg time  |  max time  |%varavg| %total
---------------------------------------------------------------
Pair    | 0.018799   | 0.018799   | 0.018799   |   0.0 | 74.42
Bond    | 0.0053355  | 0.0053355  | 0.0053355  |   0.0 | 21.12
Neigh   | 0          | 0          | 0          |   0.0 |  0.00
Comm    | 0.00064079 | 0.00064079 | 0.00064079 |   0.0 |  2.54
Output  | 0          | 0          | 0          |   0.0 |  0.00
Modify  | 0          | 0          | 0          |   0.0 |  0.00
Other   |            | 0.0004868  |            |       |  1.93

Nlocal:            362 ave         362 max         362 min
Histogram: 1 0 0 0 0 0 0 0 0 0
Nghost:           2248 ave        2248 max        2248 min
Histogram: 1 0 0 0 0 0 0 0 0 0
Neighs:          21209 ave       21209 max       21209 min
Histogram: 1 0 0 0 0 0 0 0 0 0

Total # of neighbors = 21209
Ave neighs/atom = 58.588398
Ave special neighs/atom = 6.1878453
Neighbor list builds = 0
Dangerous builds = 0

# Obtain new stress tensor

variable tmp equal pe
variable e1 equal ${tmp}
variable e1 equal 26.5462936627588
variable tmp equal press
variable p1 equal ${tmp}
variable p1 equal -198.055305479107
variable tmp equal pxx
variable pxx1 equal ${tmp}
variable pxx1 equal -1069.47557824477
variable tmp equal pyy
variable pyy1 equal ${tmp}
variable pyy1 equal 2432.57727719272
variable tmp equal pzz
variable pzz1 equal ${tmp}
variable pzz1 equal -1957.26761538528
variable tmp equal pxy
variable pxy1 equal ${tmp}
variable pxy1 equal -498.021264202364
variable tmp equal pxz
variable pxz1 equal ${tmp}
variable pxz1 equal 2541.32168353858
variable tmp equal pyz
variable pyz1 equal ${tmp}
variable pyz1 equal -6992.71731126341

# Compute elastic constant from pressure tensor

variable C1pos equal ${d1}
variable C1pos equal 18.4809076918894
variable C2pos equal ${d2}
variable C2pos equal 12.5812805906609
variable C3pos equal ${d3}
variable C3pos equal 21.7548472638319
variable C4pos equal ${d4}
variable C4pos equal 9.09580820976735
variable C5pos equal ${d5}
variable C5pos equal 3.92740812893125
variable C6pos equal ${d6}
variable C6pos equal 16.6901821781092

# Combine positive and negative

variable C1${dir} equal 0.5*(${C1neg}+${C1pos})
variable C14 equal 0.5*(${C1neg}+${C1pos})
variable C14 equal 0.5*(-15.1193759994968+${C1pos})
variable C14 equal 0.5*(-15.1193759994968+18.4809076918894)
variable C2${dir} equal 0.5*(${C2neg}+${C2pos})
variable C24 equal 0.5*(${C2neg}+${C2pos})
variable C24 equal 0.5*(-13.9644949867238+${C2pos})
variable C24 equal 0.5*(-13.9644949867238+12.5812805906609)
variable C3${dir} equal 0.5*(${C3neg}+${C3pos})
variable C34 equal 0.5*(${C3neg}+${C3pos})
variable C34 equal 0.5*(-15.6052019113792+${C3pos})
variable C34 equal 0.5*(-15.6052019113792+21.7548472638319)
variable C4${dir} equal 0.5*(${C4neg}+${C4pos})
variable C44 equal 0.5*(${C4neg}+${C4pos})
variable C44 equal 0.5*(26.4424705703666+${C4pos})
variable C44 equal 0.5*(26.4424705703666+9.09580820976735)
variable C5${dir} equal 0.5*(${C5neg}+${C5pos})
variable C54 equal 0.5*(${C5neg}+${C5pos})
variable C54 equal 0.5*(-5.5618896510879+${C5pos})
variable C54 equal 0.5*(-5.5618896510879+3.92740812893125)
variable C6${dir} equal 0.5*(${C6neg}+${C6pos})
variable C64 equal 0.5*(${C6neg}+${C6pos})
variable C64 equal 0.5*(-12.0334013970055+${C6pos})
variable C64 equal 0.5*(-12.0334013970055+16.6901821781092)

# Delete dir to make sure it is not reused

variable dir delete

# uxz Perturbation

variable dir equal 5
include ./input/displace_333U-50C-1-vasp.mod
if "${dir} == 1" then    "variable len0 equal ${lx0}"
if "${dir} == 2" then    "variable len0 equal ${ly0}"
if "${dir} == 3" then    "variable len0 equal ${lz0}"
if "${dir} == 4" then    "variable len0 equal ${lz0}"
if "${dir} == 5" then    "variable len0 equal ${lz0}"
variable len0 equal ${lz0}
variable len0 equal 18.0243402748072
if "${dir} == 6" then    "variable len0 equal ${ly0}"

# Reset box and simulation parameters

clear
OMP_NUM_THREADS environment is not set. Defaulting to 1 thread.
  using 1 OpenMP thread(s) per MPI task
box tilt large

The 'box' command has been removed and will be ignored

read_restart restart_333U-50C-1-vasp.equil
Reading restart file ...
  restart file = 10 Sep 2025, LAMMPS = 10 Sep 2025
  restoring atom style full from restart
  triclinic box = (-0.21174407 -0.17156862 -0.21884164) to (17.353452 12.996715 17.805499) with tilt (-8.6062176 0.031275459 0.31025181)
WARNING: Triclinic box skew is large. LAMMPS will run inefficiently. (src/domain.cpp:221)
  1 by 1 by 1 MPI processor grid
  restoring pair style lj/cut from restart
  restoring bond style harmonic from restart
  restoring angle style hybrid from restart
  restoring dihedral style harmonic from restart
  362 atoms
  387 bonds
  733 angles
  915 dihedrals
Finding 1-2 1-3 1-4 neighbors ...
  special bond factors lj:    0        0        1       
  special bond factors coul:  0        0        1       
     4 = max # of 1-2 neighbors
     8 = max # of 1-3 neighbors
    12 = max # of special neighbors
  special bonds CPU = 0.000 seconds
  read_restart CPU = 0.001 seconds
include ./input/angles_333U-50C-1-vasp.mod
angle_style hybrid fourier cosine/periodic
angle_coeff 1 fourier 114.246973        0.343737        0.374972        0.281246
angle_coeff 2 fourier 157.882480        0.343737        0.374972        0.281246
angle_coeff 3 fourier 221.735285        0.343737        0.374972        0.281246
angle_coeff 4 fourier 32.417871        0.343737        0.374972        0.281246
angle_coeff 5 fourier 83.380072        0.343737        0.374972        0.281246
angle_coeff 6 fourier 58.020602        0.343737        0.374972        0.281246
angle_coeff 7 fourier 90.420412        0.343737        0.374972        0.281246
angle_coeff 8 fourier 75.498766        0.343737        0.374972        0.281246
angle_coeff 9 cosine/periodic 88.853997              -1               3

# Negative deformation

variable delta equal -${up}*${len0}
variable delta equal -0.02*${len0}
variable delta equal -0.02*18.0243402748072
variable deltaxy equal -${up}*xy
variable deltaxy equal -0.02*xy
variable deltaxz equal -${up}*xz
variable deltaxz equal -0.02*xz
variable deltayz equal -${up}*yz
variable deltayz equal -0.02*yz
if "${dir} == 1" then    "change_box all x delta 0 ${delta} xy delta ${deltaxy} xz delta ${deltaxz} remap units box"
if "${dir} == 2" then    "change_box all y delta 0 ${delta} yz delta ${deltayz} remap units box"
if "${dir} == 3" then    "change_box all z delta 0 ${delta} remap units box"
if "${dir} == 4" then    "change_box all yz delta ${delta} remap units box"
if "${dir} == 5" then    "change_box all xz delta ${delta} remap units box"
change_box all xz delta ${delta} remap units box
change_box all xz delta -0.360486805496144 remap units box
Changing box ...
WARNING: Triclinic box skew is large. LAMMPS will run inefficiently. (src/domain.cpp:221)
  triclinic box = (-0.21174407 -0.17156862 -0.21884164) to (17.353452 12.996715 17.805499) with tilt (-8.6062176 -0.32921135 0.31025181)
if "${dir} == 6" then    "change_box all xy delta ${delta} remap units box"

# Relax atoms positions

minimize ${etol} ${ftol} ${maxiter} ${maxeval}
minimize 0 ${ftol} ${maxiter} ${maxeval}
minimize 0 1e-10 ${maxiter} ${maxeval}
minimize 0 1e-10 100000 ${maxeval}
minimize 0 1e-10 100000 100000
Generated 6 of 6 mixed pair_coeff terms from arithmetic mixing rule
Neighbor list info ...
  update: every = 1 steps, delay = 0 steps, check = yes
  max neighbors/atom: 2000, page size: 100000
  master list distance cutoff = 7
  ghost atom cutoff = 7
  binsize = 3.5, bins = 8 4 6
  1 neighbor lists, perpetual/occasional/extra = 1 0 0
  (1) pair lj/cut, perpetual
      attributes: half, newton on
      pair build: half/bin/newton/tri
      stencil: half/bin/3d/tri
      bin: standard
WARNING: Inconsistent image flags
For more information see https://docs.lammps.org/err0027 (src/domain.cpp:1052)
Per MPI rank memory allocation (min/avg/max) = 17.52 | 17.52 | 17.52 Mbytes
   Step          Temp          E_pair         E_mol          TotEng         Press     
    250108   314.05787     -420.08485      757.35138      675.21555      3518.995     
    250144   314.05787     -462.18173      489.33829      365.10558      427.7534     
Loop time of 0.0219412 on 1 procs for 36 steps with 362 atoms

100.0% CPU use with 1 MPI tasks x 1 OpenMP threads

Minimization stats:
  Stopping criterion = linesearch alpha is zero
  Energy initial, next-to-last, final = 
      337.266531009634   27.1565607437832   27.1565607437832
  Force two-norm initial, final = 629.12753 19.96986
  Force max component initial, final = 70.037012 2.8859444
  Final line search alpha, max atom move = 3.0069996e-11 8.6780335e-11
  Iterations, force evaluations = 36 126

MPI task timing breakdown:
Section |  min time  |  avg time  |  max time  |%varavg| %total
---------------------------------------------------------------
Pair    | 0.016384   | 0.016384   | 0.016384   |   0.0 | 74.67
Bond    | 0.0046013  | 0.0046013  | 0.0046013  |   0.0 | 20.97
Neigh   | 0          | 0          | 0          |   0.0 |  0.00
Comm    | 0.00056032 | 0.00056032 | 0.00056032 |   0.0 |  2.55
Output  | 0          | 0          | 0          |   0.0 |  0.00
Modify  | 0          | 0          | 0          |   0.0 |  0.00
Other   |            | 0.0003953  |            |       |  1.80

Nlocal:            362 ave         362 max         362 min
Histogram: 1 0 0 0 0 0 0 0 0 0
Nghost:           2248 ave        2248 max        2248 min
Histogram: 1 0 0 0 0 0 0 0 0 0
Neighs:          21223 ave       21223 max       21223 min
Histogram: 1 0 0 0 0 0 0 0 0 0

Total # of neighbors = 21223
Ave neighs/atom = 58.627072
Ave special neighs/atom = 6.1878453
Neighbor list builds = 0
Dangerous builds = 0

# Obtain new stress tensor

variable tmp equal pxx
variable pxx1 equal ${tmp}
variable pxx1 equal -238.214074296302
variable tmp equal pyy
variable pyy1 equal ${tmp}
variable pyy1 equal 3259.69153891648
variable tmp equal pzz
variable pzz1 equal ${tmp}
variable pzz1 equal -1738.21725707956
variable tmp equal pxy
variable pxy1 equal ${tmp}
variable pxy1 equal -227.157370131343
variable tmp equal pxz
variable pxz1 equal ${tmp}
variable pxz1 equal 5921.51971038787
variable tmp equal pyz
variable pyz1 equal ${tmp}
variable pyz1 equal -4098.7538957235

# Compute elastic constant from pressure tensor

variable C1neg equal ${d1}
variable C1neg equal -14.3246001721471
variable C2neg equal ${d2}
variable C2neg equal -8.44570928204205
variable C3neg equal ${d3}
variable C3neg equal -20.6595954723033
variable C4neg equal ${d4}
variable C4neg equal 5.3740088679322
variable C5neg equal ${d5}
variable C5neg equal 12.9735820053152
variable C6neg equal ${d6}
variable C6neg equal -15.3358627077541

# Reset box and simulation parameters

clear
OMP_NUM_THREADS environment is not set. Defaulting to 1 thread.
  using 1 OpenMP thread(s) per MPI task
box tilt large

The 'box' command has been removed and will be ignored

read_restart restart_333U-50C-1-vasp.equil
Reading restart file ...
  restart file = 10 Sep 2025, LAMMPS = 10 Sep 2025
  restoring atom style full from restart
  triclinic box = (-0.21174407 -0.17156862 -0.21884164) to (17.353452 12.996715 17.805499) with tilt (-8.6062176 0.031275459 0.31025181)
WARNING: Triclinic box skew is large. LAMMPS will run inefficiently. (src/domain.cpp:221)
  1 by 1 by 1 MPI processor grid
  restoring pair style lj/cut from restart
  restoring bond style harmonic from restart
  restoring angle style hybrid from restart
  restoring dihedral style harmonic from restart
  362 atoms
  387 bonds
  733 angles
  915 dihedrals
Finding 1-2 1-3 1-4 neighbors ...
  special bond factors lj:    0        0        1       
  special bond factors coul:  0        0        1       
     4 = max # of 1-2 neighbors
     8 = max # of 1-3 neighbors
    12 = max # of special neighbors
  special bonds CPU = 0.000 seconds
  read_restart CPU = 0.001 seconds
include ./input/angles_333U-50C-1-vasp.mod
angle_style hybrid fourier cosine/periodic
angle_coeff 1 fourier 114.246973        0.343737        0.374972        0.281246
angle_coeff 2 fourier 157.882480        0.343737        0.374972        0.281246
angle_coeff 3 fourier 221.735285        0.343737        0.374972        0.281246
angle_coeff 4 fourier 32.417871        0.343737        0.374972        0.281246
angle_coeff 5 fourier 83.380072        0.343737        0.374972        0.281246
angle_coeff 6 fourier 58.020602        0.343737        0.374972        0.281246
angle_coeff 7 fourier 90.420412        0.343737        0.374972        0.281246
angle_coeff 8 fourier 75.498766        0.343737        0.374972        0.281246
angle_coeff 9 cosine/periodic 88.853997              -1               3

# Positive deformation

variable delta equal ${up}*${len0}
variable delta equal 0.02*${len0}
variable delta equal 0.02*18.0243402748072
variable deltaxy equal ${up}*xy
variable deltaxy equal 0.02*xy
variable deltaxz equal ${up}*xz
variable deltaxz equal 0.02*xz
variable deltayz equal ${up}*yz
variable deltayz equal 0.02*yz
if "${dir} == 1" then    "change_box all x delta 0 ${delta} xy delta ${deltaxy} xz delta ${deltaxz} remap units box"
if "${dir} == 2" then    "change_box all y delta 0 ${delta} yz delta ${deltayz} remap units box"
if "${dir} == 3" then    "change_box all z delta 0 ${delta} remap units box"
if "${dir} == 4" then    "change_box all yz delta ${delta} remap units box"
if "${dir} == 5" then    "change_box all xz delta ${delta} remap units box"
change_box all xz delta ${delta} remap units box
change_box all xz delta 0.360486805496144 remap units box
Changing box ...
WARNING: Triclinic box skew is large. LAMMPS will run inefficiently. (src/domain.cpp:221)
  triclinic box = (-0.21174407 -0.17156862 -0.21884164) to (17.353452 12.996715 17.805499) with tilt (-8.6062176 0.39176226 0.31025181)
if "${dir} == 6" then    "change_box all xy delta ${delta} remap units box"

# Relax atoms positions

minimize ${etol} ${ftol} ${maxiter} ${maxeval}
minimize 0 ${ftol} ${maxiter} ${maxeval}
minimize 0 1e-10 ${maxiter} ${maxeval}
minimize 0 1e-10 100000 ${maxeval}
minimize 0 1e-10 100000 100000
Generated 6 of 6 mixed pair_coeff terms from arithmetic mixing rule
Neighbor list info ...
  update: every = 1 steps, delay = 0 steps, check = yes
  max neighbors/atom: 2000, page size: 100000
  master list distance cutoff = 7
  ghost atom cutoff = 7
  binsize = 3.5, bins = 8 4 6
  1 neighbor lists, perpetual/occasional/extra = 1 0 0
  (1) pair lj/cut, perpetual
      attributes: half, newton on
      pair build: half/bin/newton/tri
      stencil: half/bin/3d/tri
      bin: standard
WARNING: Inconsistent image flags
For more information see https://docs.lammps.org/err0027 (src/domain.cpp:1052)
Per MPI rank memory allocation (min/avg/max) = 17.52 | 17.52 | 17.52 Mbytes
   Step          Temp          E_pair         E_mol          TotEng         Press     
    250108   314.05787     -421.7654       752.13593      668.31955      2755.5424    
    250139   314.05787     -464.94061      486.94718      359.95558     -255.6228     
Loop time of 0.0205773 on 1 procs for 31 steps with 362 atoms

100.0% CPU use with 1 MPI tasks x 1 OpenMP threads

Minimization stats:
  Stopping criterion = linesearch alpha is zero
  Energy initial, next-to-last, final = 
       330.37053516372   22.0065671791407   22.0065671791407
  Force two-norm initial, final = 626.31442 22.135036
  Force max component initial, final = 76.590477 2.9839944
  Final line search alpha, max atom move = 1.8154129e-11 5.417182e-11
  Iterations, force evaluations = 31 118

MPI task timing breakdown:
Section |  min time  |  avg time  |  max time  |%varavg| %total
---------------------------------------------------------------
Pair    | 0.015446   | 0.015446   | 0.015446   |   0.0 | 75.06
Bond    | 0.0042542  | 0.0042542  | 0.0042542  |   0.0 | 20.67
Neigh   | 0          | 0          | 0          |   0.0 |  0.00
Comm    | 0.00050279 | 0.00050279 | 0.00050279 |   0.0 |  2.44
Output  | 0          | 0          | 0          |   0.0 |  0.00
Modify  | 0          | 0          | 0          |   0.0 |  0.00
Other   |            | 0.0003746  |            |       |  1.82

Nlocal:            362 ave         362 max         362 min
Histogram: 1 0 0 0 0 0 0 0 0 0
Nghost:           2248 ave        2248 max        2248 min
Histogram: 1 0 0 0 0 0 0 0 0 0
Neighs:          21218 ave       21218 max       21218 min
Histogram: 1 0 0 0 0 0 0 0 0 0

Total # of neighbors = 21218
Ave neighs/atom = 58.61326
Ave special neighs/atom = 6.1878453
Neighbor list builds = 0
Dangerous builds = 0

# Obtain new stress tensor

variable tmp equal pe
variable e1 equal ${tmp}
variable e1 equal 22.0065671791407
variable tmp equal press
variable p1 equal ${tmp}
variable p1 equal -255.62280387361
variable tmp equal pxx
variable pxx1 equal ${tmp}
variable pxx1 equal -1428.21512473191
variable tmp equal pyy
variable pyy1 equal ${tmp}
variable pyy1 equal 2417.09922643822
variable tmp equal pzz
variable pzz1 equal ${tmp}
variable pzz1 equal -1755.75251332714
variable tmp equal pxy
variable pxy1 equal ${tmp}
variable pxy1 equal -568.176057545112
variable tmp equal pxz
variable pxz1 equal ${tmp}
variable pxz1 equal -1336.88588255419
variable tmp equal pyz
variable pyz1 equal ${tmp}
variable pyz1 equal -3754.82817224822

# Compute elastic constant from pressure tensor

variable C1pos equal ${d1}
variable C1pos equal 20.2746054243251
variable C2pos equal ${d2}
variable C2pos equal 12.6586708444334
variable C3pos equal ${d3}
variable C3pos equal 20.7472717535412
variable C4pos equal ${d4}
variable C4pos equal -7.0936374853086
variable C5pos equal ${d5}
variable C5pos equal 23.3184459593951
variable C6pos equal ${d6}
variable C6pos equal 17.040956144823

# Combine positive and negative

variable C1${dir} equal 0.5*(${C1neg}+${C1pos})
variable C15 equal 0.5*(${C1neg}+${C1pos})
variable C15 equal 0.5*(-14.3246001721471+${C1pos})
variable C15 equal 0.5*(-14.3246001721471+20.2746054243251)
variable C2${dir} equal 0.5*(${C2neg}+${C2pos})
variable C25 equal 0.5*(${C2neg}+${C2pos})
variable C25 equal 0.5*(-8.44570928204205+${C2pos})
variable C25 equal 0.5*(-8.44570928204205+12.6586708444334)
variable C3${dir} equal 0.5*(${C3neg}+${C3pos})
variable C35 equal 0.5*(${C3neg}+${C3pos})
variable C35 equal 0.5*(-20.6595954723033+${C3pos})
variable C35 equal 0.5*(-20.6595954723033+20.7472717535412)
variable C4${dir} equal 0.5*(${C4neg}+${C4pos})
variable C45 equal 0.5*(${C4neg}+${C4pos})
variable C45 equal 0.5*(5.3740088679322+${C4pos})
variable C45 equal 0.5*(5.3740088679322+-7.0936374853086)
variable C5${dir} equal 0.5*(${C5neg}+${C5pos})
variable C55 equal 0.5*(${C5neg}+${C5pos})
variable C55 equal 0.5*(12.9735820053152+${C5pos})
variable C55 equal 0.5*(12.9735820053152+23.3184459593951)
variable C6${dir} equal 0.5*(${C6neg}+${C6pos})
variable C65 equal 0.5*(${C6neg}+${C6pos})
variable C65 equal 0.5*(-15.3358627077541+${C6pos})
variable C65 equal 0.5*(-15.3358627077541+17.040956144823)

# Delete dir to make sure it is not reused

variable dir delete

# uxy Perturbation

variable dir equal 6
include ./input/displace_333U-50C-1-vasp.mod
if "${dir} == 1" then    "variable len0 equal ${lx0}"
if "${dir} == 2" then    "variable len0 equal ${ly0}"
if "${dir} == 3" then    "variable len0 equal ${lz0}"
if "${dir} == 4" then    "variable len0 equal ${lz0}"
if "${dir} == 5" then    "variable len0 equal ${lz0}"
if "${dir} == 6" then    "variable len0 equal ${ly0}"
variable len0 equal ${ly0}
variable len0 equal 13.168283231304

# Reset box and simulation parameters

clear
OMP_NUM_THREADS environment is not set. Defaulting to 1 thread.
  using 1 OpenMP thread(s) per MPI task
box tilt large

The 'box' command has been removed and will be ignored

read_restart restart_333U-50C-1-vasp.equil
Reading restart file ...
  restart file = 10 Sep 2025, LAMMPS = 10 Sep 2025
  restoring atom style full from restart
  triclinic box = (-0.21174407 -0.17156862 -0.21884164) to (17.353452 12.996715 17.805499) with tilt (-8.6062176 0.031275459 0.31025181)
WARNING: Triclinic box skew is large. LAMMPS will run inefficiently. (src/domain.cpp:221)
  1 by 1 by 1 MPI processor grid
  restoring pair style lj/cut from restart
  restoring bond style harmonic from restart
  restoring angle style hybrid from restart
  restoring dihedral style harmonic from restart
  362 atoms
  387 bonds
  733 angles
  915 dihedrals
Finding 1-2 1-3 1-4 neighbors ...
  special bond factors lj:    0        0        1       
  special bond factors coul:  0        0        1       
     4 = max # of 1-2 neighbors
     8 = max # of 1-3 neighbors
    12 = max # of special neighbors
  special bonds CPU = 0.000 seconds
  read_restart CPU = 0.001 seconds
include ./input/angles_333U-50C-1-vasp.mod
angle_style hybrid fourier cosine/periodic
angle_coeff 1 fourier 114.246973        0.343737        0.374972        0.281246
angle_coeff 2 fourier 157.882480        0.343737        0.374972        0.281246
angle_coeff 3 fourier 221.735285        0.343737        0.374972        0.281246
angle_coeff 4 fourier 32.417871        0.343737        0.374972        0.281246
angle_coeff 5 fourier 83.380072        0.343737        0.374972        0.281246
angle_coeff 6 fourier 58.020602        0.343737        0.374972        0.281246
angle_coeff 7 fourier 90.420412        0.343737        0.374972        0.281246
angle_coeff 8 fourier 75.498766        0.343737        0.374972        0.281246
angle_coeff 9 cosine/periodic 88.853997              -1               3

# Negative deformation

variable delta equal -${up}*${len0}
variable delta equal -0.02*${len0}
variable delta equal -0.02*13.168283231304
variable deltaxy equal -${up}*xy
variable deltaxy equal -0.02*xy
variable deltaxz equal -${up}*xz
variable deltaxz equal -0.02*xz
variable deltayz equal -${up}*yz
variable deltayz equal -0.02*yz
if "${dir} == 1" then    "change_box all x delta 0 ${delta} xy delta ${deltaxy} xz delta ${deltaxz} remap units box"
if "${dir} == 2" then    "change_box all y delta 0 ${delta} yz delta ${deltayz} remap units box"
if "${dir} == 3" then    "change_box all z delta 0 ${delta} remap units box"
if "${dir} == 4" then    "change_box all yz delta ${delta} remap units box"
if "${dir} == 5" then    "change_box all xz delta ${delta} remap units box"
if "${dir} == 6" then    "change_box all xy delta ${delta} remap units box"
change_box all xy delta ${delta} remap units box
change_box all xy delta -0.26336566462608 remap units box
Changing box ...
WARNING: Triclinic box skew is large. LAMMPS will run inefficiently. (src/domain.cpp:221)
  triclinic box = (-0.21174407 -0.17156862 -0.21884164) to (17.353452 12.996715 17.805499) with tilt (-8.8695832 0.031275459 0.31025181)

# Relax atoms positions

minimize ${etol} ${ftol} ${maxiter} ${maxeval}
minimize 0 ${ftol} ${maxiter} ${maxeval}
minimize 0 1e-10 ${maxiter} ${maxeval}
minimize 0 1e-10 100000 ${maxeval}
minimize 0 1e-10 100000 100000
Generated 6 of 6 mixed pair_coeff terms from arithmetic mixing rule
Neighbor list info ...
  update: every = 1 steps, delay = 0 steps, check = yes
  max neighbors/atom: 2000, page size: 100000
  master list distance cutoff = 7
  ghost atom cutoff = 7
  binsize = 3.5, bins = 8 4 6
  1 neighbor lists, perpetual/occasional/extra = 1 0 0
  (1) pair lj/cut, perpetual
      attributes: half, newton on
      pair build: half/bin/newton/tri
      stencil: half/bin/3d/tri
      bin: standard
WARNING: Inconsistent image flags
For more information see https://docs.lammps.org/err0027 (src/domain.cpp:1052)
Per MPI rank memory allocation (min/avg/max) = 17.52 | 17.52 | 17.52 Mbytes
   Step          Temp          E_pair         E_mol          TotEng         Press     
    250108   314.05787     -422.863        758.57818      673.66419      2891.0276    
    250150   314.05787     -464.00606      486.66392      360.60688     -226.09997    
Loop time of 0.0243273 on 1 procs for 42 steps with 362 atoms

100.0% CPU use with 1 MPI tasks x 1 OpenMP threads

Minimization stats:
  Stopping criterion = linesearch alpha is zero
  Energy initial, next-to-last, final = 
      335.715173155196     22.65786299209     22.65786299209
  Force two-norm initial, final = 635.0131 15.534771
  Force max component initial, final = 73.637498 1.8255985
  Final line search alpha, max atom move = 3.3189785e-11 6.0591222e-11
  Iterations, force evaluations = 42 138

MPI task timing breakdown:
Section |  min time  |  avg time  |  max time  |%varavg| %total
---------------------------------------------------------------
Pair    | 0.01826    | 0.01826    | 0.01826    |   0.0 | 75.06
Bond    | 0.0050064  | 0.0050064  | 0.0050064  |   0.0 | 20.58
Neigh   | 0          | 0          | 0          |   0.0 |  0.00
Comm    | 0.00059822 | 0.00059822 | 0.00059822 |   0.0 |  2.46
Output  | 0          | 0          | 0          |   0.0 |  0.00
Modify  | 0          | 0          | 0          |   0.0 |  0.00
Other   |            | 0.0004628  |            |       |  1.90

Nlocal:            362 ave         362 max         362 min
Histogram: 1 0 0 0 0 0 0 0 0 0
Nghost:           2256 ave        2256 max        2256 min
Histogram: 1 0 0 0 0 0 0 0 0 0
Neighs:          21239 ave       21239 max       21239 min
Histogram: 1 0 0 0 0 0 0 0 0 0

Total # of neighbors = 21239
Ave neighs/atom = 58.671271
Ave special neighs/atom = 6.1878453
Neighbor list builds = 0
Dangerous builds = 0

# Obtain new stress tensor

variable tmp equal pxx
variable pxx1 equal ${tmp}
variable pxx1 equal -1014.07397568715
variable tmp equal pyy
variable pyy1 equal ${tmp}
variable pyy1 equal 2034.53880121282
variable tmp equal pzz
variable pzz1 equal ${tmp}
variable pzz1 equal -1698.76472979851
variable tmp equal pxy
variable pxy1 equal ${tmp}
variable pxy1 equal 3374.48993981961
variable tmp equal pxz
variable pxz1 equal ${tmp}
variable pxz1 equal 2336.10850200163
variable tmp equal pyz
variable pyz1 equal ${tmp}
variable pyz1 equal -3161.06107606892

# Compute elastic constant from pressure tensor

variable C1neg equal ${d1}
variable C1neg equal -18.2038996791013
variable C2neg equal ${d2}
variable C2neg equal -14.5714729705604
variable C3neg equal ${d3}
variable C3neg equal -20.462332835898
variable C4neg equal ${d4}
variable C4neg equal 10.0624729662051
variable C5neg equal ${d5}
variable C5neg equal -4.953474036616
variable C6neg equal ${d6}
variable C6neg equal 2.67237384200065

# Reset box and simulation parameters

clear
OMP_NUM_THREADS environment is not set. Defaulting to 1 thread.
  using 1 OpenMP thread(s) per MPI task
box tilt large

The 'box' command has been removed and will be ignored

read_restart restart_333U-50C-1-vasp.equil
Reading restart file ...
  restart file = 10 Sep 2025, LAMMPS = 10 Sep 2025
  restoring atom style full from restart
  triclinic box = (-0.21174407 -0.17156862 -0.21884164) to (17.353452 12.996715 17.805499) with tilt (-8.6062176 0.031275459 0.31025181)
WARNING: Triclinic box skew is large. LAMMPS will run inefficiently. (src/domain.cpp:221)
  1 by 1 by 1 MPI processor grid
  restoring pair style lj/cut from restart
  restoring bond style harmonic from restart
  restoring angle style hybrid from restart
  restoring dihedral style harmonic from restart
  362 atoms
  387 bonds
  733 angles
  915 dihedrals
Finding 1-2 1-3 1-4 neighbors ...
  special bond factors lj:    0        0        1       
  special bond factors coul:  0        0        1       
     4 = max # of 1-2 neighbors
     8 = max # of 1-3 neighbors
    12 = max # of special neighbors
  special bonds CPU = 0.000 seconds
  read_restart CPU = 0.001 seconds
include ./input/angles_333U-50C-1-vasp.mod
angle_style hybrid fourier cosine/periodic
angle_coeff 1 fourier 114.246973        0.343737        0.374972        0.281246
angle_coeff 2 fourier 157.882480        0.343737        0.374972        0.281246
angle_coeff 3 fourier 221.735285        0.343737        0.374972        0.281246
angle_coeff 4 fourier 32.417871        0.343737        0.374972        0.281246
angle_coeff 5 fourier 83.380072        0.343737        0.374972        0.281246
angle_coeff 6 fourier 58.020602        0.343737        0.374972        0.281246
angle_coeff 7 fourier 90.420412        0.343737        0.374972        0.281246
angle_coeff 8 fourier 75.498766        0.343737        0.374972        0.281246
angle_coeff 9 cosine/periodic 88.853997              -1               3

# Positive deformation

variable delta equal ${up}*${len0}
variable delta equal 0.02*${len0}
variable delta equal 0.02*13.168283231304
variable deltaxy equal ${up}*xy
variable deltaxy equal 0.02*xy
variable deltaxz equal ${up}*xz
variable deltaxz equal 0.02*xz
variable deltayz equal ${up}*yz
variable deltayz equal 0.02*yz
if "${dir} == 1" then    "change_box all x delta 0 ${delta} xy delta ${deltaxy} xz delta ${deltaxz} remap units box"
if "${dir} == 2" then    "change_box all y delta 0 ${delta} yz delta ${deltayz} remap units box"
if "${dir} == 3" then    "change_box all z delta 0 ${delta} remap units box"
if "${dir} == 4" then    "change_box all yz delta ${delta} remap units box"
if "${dir} == 5" then    "change_box all xz delta ${delta} remap units box"
if "${dir} == 6" then    "change_box all xy delta ${delta} remap units box"
change_box all xy delta ${delta} remap units box
change_box all xy delta 0.26336566462608 remap units box
Changing box ...
WARNING: Triclinic box skew is large. LAMMPS will run inefficiently. (src/domain.cpp:221)
  triclinic box = (-0.21174407 -0.17156862 -0.21884164) to (17.353452 12.996715 17.805499) with tilt (-8.3428519 0.031275459 0.31025181)

# Relax atoms positions

minimize ${etol} ${ftol} ${maxiter} ${maxeval}
minimize 0 ${ftol} ${maxiter} ${maxeval}
minimize 0 1e-10 ${maxiter} ${maxeval}
minimize 0 1e-10 100000 ${maxeval}
minimize 0 1e-10 100000 100000
Generated 6 of 6 mixed pair_coeff terms from arithmetic mixing rule
Neighbor list info ...
  update: every = 1 steps, delay = 0 steps, check = yes
  max neighbors/atom: 2000, page size: 100000
  master list distance cutoff = 7
  ghost atom cutoff = 7
  binsize = 3.5, bins = 8 4 6
  1 neighbor lists, perpetual/occasional/extra = 1 0 0
  (1) pair lj/cut, perpetual
      attributes: half, newton on
      pair build: half/bin/newton/tri
      stencil: half/bin/3d/tri
      bin: standard
WARNING: Inconsistent image flags
For more information see https://docs.lammps.org/err0027 (src/domain.cpp:1052)
Per MPI rank memory allocation (min/avg/max) = 17.52 | 17.52 | 17.52 Mbytes
   Step          Temp          E_pair         E_mol          TotEng         Press     
    250108   314.05787     -419.47026      748.52174      667.00049      3380.0881    
    250162   314.05787     -462.64166      483.57638      358.88373     -151.10363    
Loop time of 0.0281389 on 1 procs for 54 steps with 362 atoms

100.0% CPU use with 1 MPI tasks x 1 OpenMP threads

Minimization stats:
  Stopping criterion = linesearch alpha is zero
  Energy initial, next-to-last, final = 
       329.05147464684    20.934717959565    20.934717959565
  Force two-norm initial, final = 619.1141 11.987066
  Force max component initial, final = 69.172717 1.8995155
  Final line search alpha, max atom move = 4.6797502e-11 8.889258e-11
  Iterations, force evaluations = 54 162

MPI task timing breakdown:
Section |  min time  |  avg time  |  max time  |%varavg| %total
---------------------------------------------------------------
Pair    | 0.021029   | 0.021029   | 0.021029   |   0.0 | 74.73
Bond    | 0.0058999  | 0.0058999  | 0.0058999  |   0.0 | 20.97
Neigh   | 0          | 0          | 0          |   0.0 |  0.00
Comm    | 0.00067299 | 0.00067299 | 0.00067299 |   0.0 |  2.39
Output  | 0          | 0          | 0          |   0.0 |  0.00
Modify  | 0          | 0          | 0          |   0.0 |  0.00
Other   |            | 0.0005366  |            |       |  1.91

Nlocal:            362 ave         362 max         362 min
Histogram: 1 0 0 0 0 0 0 0 0 0
Nghost:           2234 ave        2234 max        2234 min
Histogram: 1 0 0 0 0 0 0 0 0 0
Neighs:          21223 ave       21223 max       21223 min
Histogram: 1 0 0 0 0 0 0 0 0 0

Total # of neighbors = 21223
Ave neighs/atom = 58.627072
Ave special neighs/atom = 6.1878453
Neighbor list builds = 0
Dangerous builds = 0

# Obtain new stress tensor

variable tmp equal pe
variable e1 equal ${tmp}
variable e1 equal 20.934717959565
variable tmp equal press
variable p1 equal ${tmp}
variable p1 equal -151.103630145178
variable tmp equal pxx
variable pxx1 equal ${tmp}
variable pxx1 equal -1051.84984889858
variable tmp equal pyy
variable pyy1 equal ${tmp}
variable pyy1 equal 2036.70838360366
variable tmp equal pzz
variable pzz1 equal ${tmp}
variable pzz1 equal -1438.16942514062
variable tmp equal pxy
variable pxy1 equal ${tmp}
variable pxy1 equal -3393.17830972583
variable tmp equal pxz
variable pxz1 equal ${tmp}
variable pxz1 equal 2320.56834111171
variable tmp equal pyz
variable pyz1 equal ${tmp}
variable pyz1 equal -3826.69691177998

# Compute elastic constant from pressure tensor

variable C1pos equal ${d1}
variable C1pos equal 18.3927790451585
variable C2pos equal ${d2}
variable C2pos equal 14.5606250586062
variable C3pos equal ${d3}
variable C3pos equal 19.1593563126086
variable C4pos equal ${d4}
variable C4pos equal -6.7342937876498
variable C5pos equal ${d5}
variable C5pos equal 5.0311748410656
variable C6pos equal ${d6}
variable C6pos equal 31.1659674057266

# Combine positive and negative

variable C1${dir} equal 0.5*(${C1neg}+${C1pos})
variable C16 equal 0.5*(${C1neg}+${C1pos})
variable C16 equal 0.5*(-18.2038996791013+${C1pos})
variable C16 equal 0.5*(-18.2038996791013+18.3927790451585)
variable C2${dir} equal 0.5*(${C2neg}+${C2pos})
variable C26 equal 0.5*(${C2neg}+${C2pos})
variable C26 equal 0.5*(-14.5714729705604+${C2pos})
variable C26 equal 0.5*(-14.5714729705604+14.5606250586062)
variable C3${dir} equal 0.5*(${C3neg}+${C3pos})
variable C36 equal 0.5*(${C3neg}+${C3pos})
variable C36 equal 0.5*(-20.462332835898+${C3pos})
variable C36 equal 0.5*(-20.462332835898+19.1593563126086)
variable C4${dir} equal 0.5*(${C4neg}+${C4pos})
variable C46 equal 0.5*(${C4neg}+${C4pos})
variable C46 equal 0.5*(10.0624729662051+${C4pos})
variable C46 equal 0.5*(10.0624729662051+-6.7342937876498)
variable C5${dir} equal 0.5*(${C5neg}+${C5pos})
variable C56 equal 0.5*(${C5neg}+${C5pos})
variable C56 equal 0.5*(-4.953474036616+${C5pos})
variable C56 equal 0.5*(-4.953474036616+5.0311748410656)
variable C6${dir} equal 0.5*(${C6neg}+${C6pos})
variable C66 equal 0.5*(${C6neg}+${C6pos})
variable C66 equal 0.5*(2.67237384200065+${C6pos})
variable C66 equal 0.5*(2.67237384200065+31.1659674057266)

# Delete dir to make sure it is not reused

variable dir delete

# Output final values

variable C11all equal ${C11}
variable C11all equal 39.9676038243208
variable C22all equal ${C22}
variable C22all equal 53.5754749653297
variable C33all equal ${C33}
variable C33all equal 55.9550902368243

variable C12all equal 0.5*(${C12}+${C21})
variable C12all equal 0.5*(19.5571051357154+${C21})
variable C12all equal 0.5*(19.5571051357154+21.7500809814937)
variable C13all equal 0.5*(${C13}+${C31})
variable C13all equal 0.5*(17.1673462340521+${C31})
variable C13all equal 0.5*(17.1673462340521+17.4707239675743)
variable C23all equal 0.5*(${C23}+${C32})
variable C23all equal 0.5*(25.1568990211792+${C32})
variable C23all equal 0.5*(25.1568990211792+24.9735038652214)

variable C44all equal ${C44}
variable C44all equal 17.769139390067
variable C55all equal ${C55}
variable C55all equal 18.1460139823552
variable C66all equal ${C66}
variable C66all equal 16.9191706238636

variable C14all equal 0.5*(${C14}+${C41})
variable C14all equal 0.5*(1.6807658461963+${C41})
variable C14all equal 0.5*(1.6807658461963+1.07573291050518)
variable C15all equal 0.5*(${C15}+${C51})
variable C15all equal 0.5*(2.975002626089+${C51})
variable C15all equal 0.5*(2.975002626089+3.87596151942172)
variable C16all equal 0.5*(${C16}+${C61})
variable C16all equal 0.5*(0.0944396830285985+${C61})
variable C16all equal 0.5*(0.0944396830285985+-0.4357360288558)

variable C24all equal 0.5*(${C24}+${C42})
variable C24all equal 0.5*(-0.69160719803145+${C42})
variable C24all equal 0.5*(-0.69160719803145+0.115121360147651)
variable C25all equal 0.5*(${C25}+${C52})
variable C25all equal 0.5*(2.10648078119568+${C52})
variable C25all equal 0.5*(2.10648078119568+3.12579438499623)
variable C26all equal 0.5*(${C26}+${C62})
variable C26all equal 0.5*(-0.00542395597709966+${C62})
variable C26all equal 0.5*(-0.00542395597709966+0.1970056797813)

variable C34all equal 0.5*(${C34}+${C43})
variable C34all equal 0.5*(3.07482267622635+${C43})
variable C34all equal 0.5*(3.07482267622635+4.11178030456982)
variable C35all equal 0.5*(${C35}+${C53})
variable C35all equal 0.5*(0.0438381406189485+${C53})
variable C35all equal 0.5*(0.0438381406189485+-0.0663309339945752)
variable C36all equal 0.5*(${C36}+${C63})
variable C36all equal 0.5*(-0.651488261644699+${C63})
variable C36all equal 0.5*(-0.651488261644699+0.635950717439051)

variable C45all equal 0.5*(${C45}+${C54})
variable C45all equal 0.5*(-0.8598143086882+${C54})
variable C45all equal 0.5*(-0.8598143086882+-0.817240761078325)
variable C46all equal 0.5*(${C46}+${C64})
variable C46all equal 0.5*(1.66408958927765+${C64})
variable C46all equal 0.5*(1.66408958927765+2.32839039055185)
variable C56all equal 0.5*(${C56}+${C65})
variable C56all equal 0.5*(0.0388504022248002+${C65})
variable C56all equal 0.5*(0.0388504022248002+0.85254671853445)

# Average moduli for cubic crystals

variable C11cubic equal (${C11all}+${C22all}+${C33all})/3.0
variable C11cubic equal (39.9676038243208+${C22all}+${C33all})/3.0
variable C11cubic equal (39.9676038243208+53.5754749653297+${C33all})/3.0
variable C11cubic equal (39.9676038243208+53.5754749653297+55.9550902368243)/3.0
variable C12cubic equal (${C12all}+${C13all}+${C23all})/3.0
variable C12cubic equal (20.6535930586045+${C13all}+${C23all})/3.0
variable C12cubic equal (20.6535930586045+17.3190351008132+${C23all})/3.0
variable C12cubic equal (20.6535930586045+17.3190351008132+25.0652014432003)/3.0
variable C44cubic equal (${C44all}+${C55all}+${C66all})/3.0
variable C44cubic equal (17.769139390067+${C55all}+${C66all})/3.0
variable C44cubic equal (17.769139390067+18.1460139823552+${C66all})/3.0
variable C44cubic equal (17.769139390067+18.1460139823552+16.9191706238636)/3.0

variable bulkmodulus equal (${C11cubic}+2*${C12cubic})/3.0
variable bulkmodulus equal (49.8327230088249+2*${C12cubic})/3.0
variable bulkmodulus equal (49.8327230088249+2*21.0126098675393)/3.0
variable shearmodulus1 equal ${C44cubic}
variable shearmodulus1 equal 17.6114413320953
variable shearmodulus2 equal (${C11cubic}-${C12cubic})/2.0
variable shearmodulus2 equal (49.8327230088249-${C12cubic})/2.0
variable shearmodulus2 equal (49.8327230088249-21.0126098675393)/2.0
variable poissonratio equal 1.0/(1.0+${C11cubic}/${C12cubic})
variable poissonratio equal 1.0/(1.0+49.8327230088249/${C12cubic})
variable poissonratio equal 1.0/(1.0+49.8327230088249/21.0126098675393)

print "Elastic Constant 1 1 = ${C11all}"
Elastic Constant 1 1 = 39.9676038243208
print "Elastic Constant 2 2 = ${C22all}"
Elastic Constant 2 2 = 53.5754749653297
print "Elastic Constant 3 3 = ${C33all}"
Elastic Constant 3 3 = 55.9550902368243

print "Elastic Constant 1 2 = ${C12all}"
Elastic Constant 1 2 = 20.6535930586045
print "Elastic Constant 1 3 = ${C13all}"
Elastic Constant 1 3 = 17.3190351008132
print "Elastic Constant 2 3 = ${C23all}"
Elastic Constant 2 3 = 25.0652014432003

print "Elastic Constant 4 4 = ${C44all}"
Elastic Constant 4 4 = 17.769139390067
print "Elastic Constant 5 5 = ${C55all}"
Elastic Constant 5 5 = 18.1460139823552
print "Elastic Constant 6 6 = ${C66all}"
Elastic Constant 6 6 = 16.9191706238636

print "Elastic Constant 1 4 = ${C14all}"
Elastic Constant 1 4 = 1.37824937835074
print "Elastic Constant 1 5 = ${C15all}"
Elastic Constant 1 5 = 3.42548207275536
print "Elastic Constant 1 6 = ${C16all}"
Elastic Constant 1 6 = -0.170648172913601

print "Elastic Constant 2 4 = ${C24all}"
Elastic Constant 2 4 = -0.2882429189419
print "Elastic Constant 2 5 = ${C25all}"
Elastic Constant 2 5 = 2.61613758309595
print "Elastic Constant 2 6 = ${C26all}"
Elastic Constant 2 6 = 0.0957908619021002

print "Elastic Constant 3 4 = ${C34all}"
Elastic Constant 3 4 = 3.59330149039809
print "Elastic Constant 3 5 = ${C35all}"
Elastic Constant 3 5 = -0.0112463966878133
print "Elastic Constant 3 6 = ${C36all}"
Elastic Constant 3 6 = -0.00776877210282401

print "Elastic Constant 4 5 = ${C45all}"
Elastic Constant 4 5 = -0.838527534883262
print "Elastic Constant 4 6 = ${C46all}"
Elastic Constant 4 6 = 1.99623998991475
print "Elastic Constant 5 6 = ${C56all}"
Elastic Constant 5 6 = 0.445698560379625

print "Bulk Modulus = ${bulkmodulus} ${cunits}"
Bulk Modulus = 30.6193142479678 GPa
print "Shear Modulus 1 = ${shearmodulus1} ${cunits}"
Shear Modulus 1 = 17.6114413320953 GPa
print "Shear Modulus 2 = ${shearmodulus2} ${cunits}"
Shear Modulus 2 = 14.4100565706428 GPa
print "Poisson Ratio = ${poissonratio}"
Poisson Ratio = 0.296598364555778

variable rho equal density
print "density (g/cm^3) = ${rho}"
density (g/cm^3) = 1.58017710310974
Total wall time: 0:01:01
