units           real
atom_style      full
boundary        p p p

pair_style      lj/cut 5.000
bond_style      harmonic
angle_style     hybrid fourier cosine/periodic
dihedral_style  harmonic

pair_modify     tail yes mix arithmetic
dielectric      1.0
special_bonds   lj/coul 0.0 0.0 1.0
box tilt        large

The 'box' command has been removed and will be ignored

read_data       ./dat/data.333-HD-100C-14-VASP
Reading data file ...
  triclinic box = (0 0 0) to (15.546207 13.465953 17.246463) with tilt (-7.583966 0.177804 0.437127)
WARNING: Triclinic box skew is large. LAMMPS will run inefficiently. (src/domain.cpp:221)
  1 by 1 by 1 MPI processor grid
  reading atoms ...
  366 atoms
  scanning bonds ...
  4 = max bonds/atom
  scanning angles ...
  6 = max angles/atom
  scanning dihedrals ...
  30 = max dihedrals/atom
  triclinic box = (0 0 0) to (15.546207 13.465953 17.246463) with tilt (-7.583966 0.177804 0.437127)
WARNING: Triclinic box skew is large. LAMMPS will run inefficiently. (src/domain.cpp:221)
  1 by 1 by 1 MPI processor grid
  reading bonds ...
  408 bonds
  reading angles ...
  792 angles
  reading dihedrals ...
  1080 dihedrals
Finding 1-2 1-3 1-4 neighbors ...
  special bond factors lj:    0        0        1       
  special bond factors coul:  0        0        1       
     4 = max # of 1-2 neighbors
    10 = max # of 1-3 neighbors
    14 = max # of special neighbors
  special bonds CPU = 0.000 seconds
  read_data CPU = 0.007 seconds

#### Atom Groupings ####
group           fram     id   1:366
366 atoms in group fram
#### END Atom Groupings ####

compute am all property/atom mass
dump        atom_pos all extxyz 100 ./output/333-HD-100C-14-VASP.lammpstrj
dump_modify atom_pos element Si C O H mass yes
thermo          1000
thermo_style    custom step temp pe ke etotal press vol density

variable up equal 2e-2
variable cfac equal 1.0e-4
variable cunits string GPa

# Define minimization parameters
variable etol equal 0.0
variable ftol equal 1.0e-10
variable maxiter equal 100000
variable maxeval equal 100000
variable dmax equal 1.0e-2

variable temp equal 300.0
variable thermal_damp index 100.0
variable pressure_damp index 500.0

fix relax all box/relax aniso 0.0 vmax 0.001
unfix relax
minimize ${etol} ${ftol} ${maxiter} ${maxeval}
minimize 0 ${ftol} ${maxiter} ${maxeval}
minimize 0 1e-10 ${maxiter} ${maxeval}
minimize 0 1e-10 100000 ${maxeval}
minimize 0 1e-10 100000 100000
Generated 6 of 6 mixed pair_coeff terms from arithmetic mixing rule
Neighbor list info ...
  update: every = 1 steps, delay = 0 steps, check = yes
  max neighbors/atom: 2000, page size: 100000
  master list distance cutoff = 7
  ghost atom cutoff = 7
  binsize = 3.5, bins = 7 4 5
  1 neighbor lists, perpetual/occasional/extra = 1 0 0
  (1) pair lj/cut, perpetual
      attributes: half, newton on
      pair build: half/bin/newton/tri
      stencil: half/bin/3d/tri
      bin: standard
WARNING: Inconsistent image flags
For more information see https://docs.lammps.org/err0027 (src/domain.cpp:1052)
Per MPI rank memory allocation (min/avg/max) = 19.53 | 19.53 | 19.53 Mbytes
   Step          Temp          PotEng         KinEng         TotEng         Press          Volume        Density    
         0   0              2237.984       0              2237.984       151542.32      3610.452       1.9791675    
        55   0              581.18487      0              581.18487      13246.805      3610.452       1.9791675    
Loop time of 0.0486797 on 1 procs for 55 steps with 366 atoms

99.9% CPU use with 1 MPI tasks x 1 OpenMP threads

Minimization stats:
  Stopping criterion = linesearch alpha is zero
  Energy initial, next-to-last, final = 
       2237.9840104222   581.184871597907   581.184871597907
  Force two-norm initial, final = 935.43302 94.331886
  Force max component initial, final = 96.315896 64.236056
  Final line search alpha, max atom move = 7.8816714e-13 5.0628748e-11
  Iterations, force evaluations = 55 219

MPI task timing breakdown:
Section |  min time  |  avg time  |  max time  |%varavg| %total
---------------------------------------------------------------
Pair    | 0.035651   | 0.035651   | 0.035651   |   0.0 | 73.24
Bond    | 0.0088465  | 0.0088465  | 0.0088465  |   0.0 | 18.17
Neigh   | 0.002003   | 0.002003   | 0.002003   |   0.0 |  4.11
Comm    | 0.0010265  | 0.0010265  | 0.0010265  |   0.0 |  2.11
Output  | 0          | 0          | 0          |   0.0 |  0.00
Modify  | 0          | 0          | 0          |   0.0 |  0.00
Other   |            | 0.001153   |            |       |  2.37

Nlocal:            366 ave         366 max         366 min
Histogram: 1 0 0 0 0 0 0 0 0 0
Nghost:           2356 ave        2356 max        2356 min
Histogram: 1 0 0 0 0 0 0 0 0 0
Neighs:          25327 ave       25327 max       25327 min
Histogram: 1 0 0 0 0 0 0 0 0 0

Total # of neighbors = 25327
Ave neighs/atom = 69.199454
Ave special neighs/atom = 6.557377
Neighbor list builds = 1
Dangerous builds = 0

# Generating the full routine as described in the paper for UFF
fix nvt_relax   all nvt temp 300 300 ${thermal_damp}
fix nvt_relax   all nvt temp 300 300 100.0
run 100000      # 100 picoseconds
Generated 6 of 6 mixed pair_coeff terms from arithmetic mixing rule
WARNING: Inconsistent image flags
For more information see https://docs.lammps.org/err0027 (src/domain.cpp:1052)
Per MPI rank memory allocation (min/avg/max) = 19.48 | 19.48 | 19.48 Mbytes
   Step          Temp          PotEng         KinEng         TotEng         Press          Volume        Density    
        55   0              581.18487      0              581.18487      13246.805      3610.452       1.9791675    
      1000   285.0142       833.77428      310.09421      1143.8685      19689.625      3610.452       1.9791675    
      2000   322.06963      826.41983      350.41036      1176.8302      12508.394      3610.452       1.9791675    
      3000   311.33999      806.27741      338.73656      1145.014       15027.495      3610.452       1.9791675    
      4000   297.38462      825.99671      323.55318      1149.5499      14308.456      3610.452       1.9791675    
      5000   315.9793       813.16565      343.78411      1156.9498      13835.039      3610.452       1.9791675    
      6000   286.72197      817.62168      311.95226      1129.5739      9461.9915      3610.452       1.9791675    
      7000   298.09505      829.17593      324.32612      1153.5021      13262.075      3610.452       1.9791675    
      8000   314.52905      810.4364       342.20624      1152.6426      13315.802      3610.452       1.9791675    
      9000   285.54152      797.68781      310.66794      1108.3558      15356.705      3610.452       1.9791675    
     10000   337.86097      804.24204      367.59127      1171.8333      10702.786      3610.452       1.9791675    
     11000   290.1908       810.98482      315.72633      1126.7112      8259.2058      3610.452       1.9791675    
     12000   303.15618      829.73552      329.83262      1159.5681      17733.035      3610.452       1.9791675    
     13000   286.55013      819.46115      311.7653       1131.2265      12870.379      3610.452       1.9791675    
     14000   304.16565      817.79496      330.93091      1148.7259      16062.192      3610.452       1.9791675    
     15000   312.8601       854.58148      340.39043      1194.9719      9859.1256      3610.452       1.9791675    
     16000   310.77306      812.30094      338.11974      1150.4207      11690.03       3610.452       1.9791675    
     17000   277.87057      822.39061      302.32198      1124.7126      14547.769      3610.452       1.9791675    
     18000   292.62802      835.82444      318.37802      1154.2025      6839.6572      3610.452       1.9791675    
     19000   306.46808      822.55514      333.43594      1155.9911      16449.054      3610.452       1.9791675    
     20000   278.39356      817.26894      302.89099      1120.1599      9849.476       3610.452       1.9791675    
     21000   312.86528      831.08438      340.39607      1171.4805      11770.496      3610.452       1.9791675    
     22000   320.0289       815.69037      348.19006      1163.8804      10652.409      3610.452       1.9791675    
     23000   291.13253      822.07206      316.75093      1138.823       13885.363      3610.452       1.9791675    
     24000   321.10439      816.04549      349.36019      1165.4057      17863.877      3610.452       1.9791675    
     25000   296.30182      804.89759      322.3751       1127.2727      12392.098      3610.452       1.9791675    
     26000   296.50741      808.88751      322.59877      1131.4863      7796.1327      3610.452       1.9791675    
     27000   310.64044      816.00827      337.97546      1153.9837      11922.215      3610.452       1.9791675    
     28000   294.4558       799.08192      320.36663      1119.4486      7811.804       3610.452       1.9791675    
     29000   301.98495      834.02119      328.55832      1162.5795      14411.082      3610.452       1.9791675    
     30000   287.03605      822.38531      312.29398      1134.6793      16531.759      3610.452       1.9791675    
     31000   328.12531      828.02646      356.99892      1185.0254      5543.6071      3610.452       1.9791675    
     32000   306.06351      811.36586      332.99577      1144.3616      14383.345      3610.452       1.9791675    
     33000   314.5096       845.22035      342.18508      1187.4054      10129.047      3610.452       1.9791675    
     34000   290.22007      822.74372      315.75818      1138.5019      13425.34       3610.452       1.9791675    
     35000   310.62163      831.71494      337.95499      1169.6699      9080.2534      3610.452       1.9791675    
     36000   282.56341      820.65423      307.42777      1128.082       12450.462      3610.452       1.9791675    
     37000   302.4568       842.6901       329.07169      1171.7618      13268.157      3610.452       1.9791675    
     38000   280.15893      816.67514      304.8117       1121.4868      6192.411       3610.452       1.9791675    
     39000   324.39069      805.48952      352.93567      1158.4252      19399.021      3610.452       1.9791675    
     40000   287.73729      831.72185      313.05692      1144.7788      11881.349      3610.452       1.9791675    
     41000   303.11773      821.45752      329.79078      1151.2483      9622.8834      3610.452       1.9791675    
     42000   318.58053      833.34751      346.61424      1179.9617      9859.225       3610.452       1.9791675    
     43000   316.9038       798.72441      344.78997      1143.5144      12987.84       3610.452       1.9791675    
     44000   302.03363      837.45999      328.61128      1166.0713      13209.985      3610.452       1.9791675    
     45000   314.12261      795.39175      341.76404      1137.1558      9335.2981      3610.452       1.9791675    
     46000   300.16708      827.48017      326.58048      1154.0606      8716.5111      3610.452       1.9791675    
     47000   286.97099      822.91853      312.2232       1135.1417      12630.095      3610.452       1.9791675    
     48000   285.16713      825.65545      310.2606       1135.916       10329.611      3610.452       1.9791675    
     49000   289.32185      838.61612      314.78092      1153.397       11443.885      3610.452       1.9791675    
     50000   295.69009      817.22866      321.70954      1138.9382      13350.824      3610.452       1.9791675    
     51000   308.00545      839.70464      335.1086       1174.8132      10056.182      3610.452       1.9791675    
     52000   282.48219      826.74496      307.33939      1134.0844      10983.62       3610.452       1.9791675    
     53000   301.27961      824.13916      327.79091      1151.9301      13709.731      3610.452       1.9791675    
     54000   286.05974      814.36665      311.23176      1125.5984      14180.057      3610.452       1.9791675    
     55000   297.97559      832.94457      324.19615      1157.1407      14277.076      3610.452       1.9791675    
     56000   301.74718      851.70356      328.29963      1180.0032      15283.141      3610.452       1.9791675    
     57000   291.93038      817.43024      317.61899      1135.0492      11375.111      3610.452       1.9791675    
     58000   276.13658      813.22425      300.4354       1113.6597      11227.816      3610.452       1.9791675    
     59000   293.93435      842.98875      319.7993       1162.7881      14100.058      3610.452       1.9791675    
     60000   305.62967      813.3488       332.52375      1145.8726      11068.308      3610.452       1.9791675    
     61000   293.6284       827.78156      319.46643      1147.248       5883.9286      3610.452       1.9791675    
     62000   303.512        839.39212      330.21974      1169.6119      11717.417      3610.452       1.9791675    
     63000   281.25634      814.01105      306.00568      1120.0167      18080.072      3610.452       1.9791675    
     64000   316.38749      829.13886      344.22822      1173.3671      14532.854      3610.452       1.9791675    
     65000   286.18511      834.7468       311.36816      1146.115       8618.0787      3610.452       1.9791675    
     66000   311.92877      822.00943      339.37715      1161.3866      14775.815      3610.452       1.9791675    
     67000   276.12197      821.70679      300.41951      1122.1263      12908.565      3610.452       1.9791675    
     68000   288.33082      839.24537      313.70268      1152.9481      13636.675      3610.452       1.9791675    
     69000   302.50597      861.62966      329.12518      1190.7548      14666.967      3610.452       1.9791675    
     70000   317.37967      813.97838      345.30771      1159.2861      14393.947      3610.452       1.9791675    
     71000   282.31344      823.86222      307.1558       1131.018       10183.832      3610.452       1.9791675    
     72000   314.68146      797.75699      342.37207      1140.1291      12925.265      3610.452       1.9791675    
     73000   297.79619      822.50792      324.00096      1146.5089      10351.263      3610.452       1.9791675    
     74000   309.56983      809.3818       336.81064      1146.1924      9922.6902      3610.452       1.9791675    
     75000   302.85293      836.15593      329.50268      1165.6586      15450.988      3610.452       1.9791675    
     76000   294.87741      824.47243      320.82534      1145.2978      13719.656      3610.452       1.9791675    
     77000   277.21512      816.81693      301.60885      1118.4258      7178.6336      3610.452       1.9791675    
     78000   294.85718      842.99115      320.80333      1163.7945      11071.655      3610.452       1.9791675    
     79000   286.31269      823.54552      311.50697      1135.0525      12983.014      3610.452       1.9791675    
     80000   307.55094      827.35662      334.61409      1161.9707      12059.022      3610.452       1.9791675    
     81000   282.78129      820.36165      307.66482      1128.0265      18288.011      3610.452       1.9791675    
     82000   297.59876      831.3439       323.78616      1155.1301      8471.4629      3610.452       1.9791675    
     83000   316.4569       826.12059      344.30373      1170.4243      12315.789      3610.452       1.9791675    
     84000   292.96293      822.11347      318.7424       1140.8559      14965.245      3610.452       1.9791675    
     85000   311.08669      836.40584      338.46097      1174.8668      12041.098      3610.452       1.9791675    
     86000   282.17659      815.07094      307.00691      1122.0778      13560.298      3610.452       1.9791675    
     87000   300.32928      824.03949      326.75695      1150.7964      3600.0127      3610.452       1.9791675    
     88000   302.02978      850.81562      328.60709      1179.4227      12522.425      3610.452       1.9791675    
     89000   280.4929       823.92568      305.17506      1129.1007      10286.201      3610.452       1.9791675    
     90000   305.64289      871.81884      332.53814      1204.357       11084.386      3610.452       1.9791675    
     91000   288.34322      839.36052      313.71617      1153.0767      9519.1302      3610.452       1.9791675    
     92000   311.19669      819.33944      338.58065      1157.9201      14945.873      3610.452       1.9791675    
     93000   288.9462       852.3261       314.37221      1166.6983      14476.928      3610.452       1.9791675    
     94000   273.57986      806.7725       297.65371      1104.4262      11958.209      3610.452       1.9791675    
     95000   303.99568      826.06934      330.74598      1156.8153      9920.7413      3610.452       1.9791675    
     96000   293.9778       810.84228      319.84658      1130.6889      12752.259      3610.452       1.9791675    
     97000   293.41858      841.72297      319.23814      1160.9611      13963.384      3610.452       1.9791675    
     98000   300.54602      825.35838      326.99277      1152.3511      12385.503      3610.452       1.9791675    
     99000   300.65656      814.5113       327.11304      1141.6243      12876.726      3610.452       1.9791675    
    100000   303.36021      830.12963      330.05459      1160.1842      9840.0799      3610.452       1.9791675    
    100055   291.0342       837.34401      316.64395      1153.988       14755.045      3610.452       1.9791675    
Loop time of 25.1761 on 1 procs for 100000 steps with 366 atoms

Performance: 343.182 ns/day, 0.070 hours/ns, 3972.017 timesteps/s, 1.454 Matom-step/s
99.8% CPU use with 1 MPI tasks x 1 OpenMP threads

MPI task timing breakdown:
Section |  min time  |  avg time  |  max time  |%varavg| %total
---------------------------------------------------------------
Pair    | 15.372     | 15.372     | 15.372     |   0.0 | 61.06
Bond    | 4.0782     | 4.0782     | 4.0782     |   0.0 | 16.20
Neigh   | 4.1399     | 4.1399     | 4.1399     |   0.0 | 16.44
Comm    | 0.57557    | 0.57557    | 0.57557    |   0.0 |  2.29
Output  | 0.52446    | 0.52446    | 0.52446    |   0.0 |  2.08
Modify  | 0.35456    | 0.35456    | 0.35456    |   0.0 |  1.41
Other   |            | 0.1319     |            |       |  0.52

Nlocal:            366 ave         366 max         366 min
Histogram: 1 0 0 0 0 0 0 0 0 0
Nghost:           2396 ave        2396 max        2396 min
Histogram: 1 0 0 0 0 0 0 0 0 0
Neighs:          25309 ave       25309 max       25309 min
Histogram: 1 0 0 0 0 0 0 0 0 0

Total # of neighbors = 25309
Ave neighs/atom = 69.150273
Ave special neighs/atom = 6.557377
Neighbor list builds = 1630
Dangerous builds = 0
unfix           nvt_relax

fix npt_relax   all npt temp 300 300 ${thermal_damp} iso 0 0 ${pressure_damp}
fix npt_relax   all npt temp 300 300 100.0 iso 0 0 ${pressure_damp}
fix npt_relax   all npt temp 300 300 100.0 iso 0 0 500.0
run 100000      # 100 picoseconds
Generated 6 of 6 mixed pair_coeff terms from arithmetic mixing rule
WARNING: Inconsistent image flags
For more information see https://docs.lammps.org/err0027 (src/domain.cpp:1052)
Per MPI rank memory allocation (min/avg/max) = 19.49 | 19.49 | 19.49 Mbytes
   Step          Temp          PotEng         KinEng         TotEng         Press          Volume        Density    
    100055   291.0342       837.34401      316.64395      1153.988       14755.045      3610.452       1.9791675    
    101000   325.69257      855.48053      354.3521       1209.8326     -2118.4171      3672.8569      1.9455399    
    102000   302.50551      805.45173      329.12468      1134.5764      2049.3773      3638.9415      1.9636725    
    103000   301.34522      807.2285       327.8623       1135.0908      5193.505       3661.4135      1.9516205    
    104000   301.08142      837.53782      327.57528      1165.1131     -3268.4048      3671.4018      1.9463109    
    105000   283.22642      828.90572      308.14911      1137.0548     -4867.2499      3698.5638      1.9320173    
    106000   292.88599      825.83922      318.65869      1144.4979     -2593.1891      3685.4936      1.938869     
    107000   308.20517      848.56676      335.32589      1183.8927      5821.6615      3641.8882      1.9620837    
    108000   305.64275      812.40761      332.53799      1144.9456     -2176.1352      3686.3655      1.9384105    
    109000   277.31039      838.43189      301.7125       1140.1444     -8676.4334      3697.0151      1.9328267    
    110000   322.38235      806.64018      350.7506       1157.3908      669.53631      3673.0648      1.9454297    
    111000   296.21439      799.54555      322.27998      1121.8255      8257.5413      3644.2757      1.9607983    
    112000   289.16262      849.39632      314.60768      1164.004      -5673.0892      3676.3581      1.943687     
    113000   305.73926      797.98946      332.64299      1130.6325     -511.28752      3666.8101      1.9487482    
    114000   302.86847      827.55992      329.51959      1157.0795     -3040.2781      3690.795       1.9360841    
    115000   299.69996      815.55463      326.07226      1141.6269     -4740.5229      3701.0265      1.9307318    
    116000   306.88736      819.63846      333.89212      1153.5306     -1861.4893      3661.0291      1.9518254    
    117000   308.38516      810.00785      335.52172      1145.5296      3274.8452      3649.4853      1.9579993    
    118000   305.84598      827.12052      332.7591       1159.8796     -1238.5453      3663.5371      1.9504892    
    119000   285.99325      838.36287      311.15942      1149.5223     -5622.7556      3669.5057      1.9473166    
    120000   288.49784      799.2926       313.8844       1113.177       1189.6874      3669.8045      1.9471581    
    121000   301.90449      831.67168      328.47078      1160.1425     -1153.5239      3658.8521      1.9529867    
    122000   281.46969      821.4173       306.23781      1127.6551      2900.2147      3667.7521      1.9482477    
    123000   294.61685      827.10399      320.54185      1147.6458     -5251.5893      3677.6566      1.9430007    
    124000   298.58958      851.20685      324.86417      1176.071       1699.1902      3671.6382      1.9461856    
    125000   295.48802      823.76061      321.48969      1145.2503      2657.9909      3664.1306      1.9501733    
    126000   304.37378      798.80275      331.15736      1129.9601     -257.78504      3660.7731      1.9519619    
    127000   306.23328      830.27896      333.18049      1163.4594      4823.3825      3655.2853      1.9548924    
    128000   290.19764      820.64519      315.73377      1136.379       669.49577      3643.6116      1.9611556    
    129000   300.74929      820.76662      327.21392      1147.9805     -3781.3654      3672.9746      1.9454775    
    130000   299.7229       843.64048      326.09721      1169.7377     -79.26317       3677.7058      1.9429747    
    131000   295.66831      803.57095      321.68584      1125.2568      4205.8333      3653.9409      1.9556117    
    132000   314.42374      828.16625      342.09167      1170.2579      4235.178       3660.2129      1.9522606    
    133000   294.15004      811.56265      320.03397      1131.5966     -967.31587      3673.0748      1.9454244    
    134000   288.87242      844.51114      314.29194      1158.8031     -174.03629      3671.2411      1.9463962    
    135000   293.80839      819.5284       319.66226      1139.1907     -9384.0296      3686.1796      1.9385082    
    136000   314.61475      808.76898      342.29949      1151.0685      3386.4917      3661.3194      1.9516706    
    137000   304.7862       818.66814      331.60606      1150.2742      3829.6343      3664.7204      1.9498594    
    138000   297.25173      820.91568      323.40859      1144.3243     -158.42775      3669.3834      1.9473815    
    139000   282.41892      838.55442      307.27056      1145.825      -998.99933      3682.0159      1.9407003    
    140000   269.61438      824.53547      293.33928      1117.8748     -2705.7508      3675.1765      1.9443119    
    141000   288.4704       851.40396      313.85454      1165.2585     -2439.1291      3687.9491      1.9375781    
    142000   323.0319       812.44268      351.4573       1163.9         908.86592      3677.8556      1.9428956    
    143000   304.58686      806.61174      331.38918      1138.0009      4379.706       3653.6938      1.9557439    
    144000   326.1476       835.10304      354.84718      1189.9502     -2968.3588      3678.6096      1.9424974    
    145000   295.81436      802.20106      321.84474      1124.0458      1846.9214      3667.3454      1.9484637    
    146000   305.57039      810.2408       332.45926      1142.7001      539.86669      3667.7924      1.9482263    
    147000   301.44512      820.9752       327.97098      1148.9462      2784.8267      3663.2247      1.9506555    
    148000   288.65094      804.76267      314.05097      1118.8136     -2730.7906      3683.8138      1.9397532    
    149000   297.07606      819.63095      323.21746      1142.8484     -6130.7949      3666.3085      1.9490148    
    150000   307.32099      795.76025      334.36391      1130.1242      4999.1947      3677.0375      1.9433279    
    151000   276.69897      801.65896      301.04728      1102.7062      3596.3954      3669.1662      1.9474968    
    152000   294.99033      821.5862       320.9482       1142.5344     -1013.8355      3682.8927      1.9402383    
    153000   281.48206      798.90811      306.25126      1105.1594     -4922.2027      3690.4038      1.9362893    
    154000   303.58963      829.59099      330.30421      1159.8952      1136.5745      3654.6989      1.955206     
    155000   297.03204      795.2371       323.16958      1118.4067      992.84096      3664.2357      1.9501173    
    156000   313.95295      830.57328      341.57945      1172.1527     -1855.3179      3686.5845      1.9382953    
    157000   307.92416      798.39813      335.02015      1133.4183     -4368.4048      3674.4051      1.9447201    
    158000   285.79235      798.26783      310.94084      1109.2087      8699.5851      3677.3536      1.9431608    
    159000   296.69811      808.22899      322.80626      1131.0352     -544.32702      3674.1906      1.9448336    
    160000   296.37198      815.30965      322.45143      1137.7611     -1553.3439      3671.6335      1.9461881    
    161000   308.01588      817.45297      335.11994      1152.5729      8333.6237      3657.0915      1.9539269    
    162000   282.39996      779.65418      307.24993      1086.9041      1899.505       3652.7416      1.9562538    
    163000   286.37855      819.29274      311.57863      1130.8714     -6665.6291      3689.7785      1.9366175    
    164000   294.27848      815.04424      320.17371      1135.218      -5953.142       3687.8039      1.9376544    
    165000   327.10743      796.27994      355.89147      1152.1714      540.74698      3668.859       1.9476599    
    166000   301.16772      795.99329      327.66918      1123.6625      2476.9702      3675.5898      1.9440933    
    167000   304.76153      795.53759      331.57922      1127.1168     -4739.9985      3679.8756      1.9418291    
    168000   281.19538      779.62963      305.93935      1085.569       5944.4008      3663.7909      1.9503541    
    169000   305.7636       810.56247      332.66948      1143.2319      853.70985      3680.502       1.9414986    
    170000   316.73499      789.04888      344.60629      1133.6552     -5162.063       3692.2797      1.9353056    
    171000   269.51458      782.87132      293.2307       1076.102      -1221.4607      3690.1638      1.9364153    
    172000   303.94179      805.94819      330.68735      1136.6355      94.195846      3682.7713      1.9403022    
    173000   289.53509      773.59279      315.01293      1088.6057     -742.31731      3661.5744      1.9515347    
    174000   297.24545      813.59651      323.40176      1136.9983     -2107.9724      3680.3421      1.941583     
    175000   307.10538      770.74668      334.12932      1104.876      -691.30148      3673.2945      1.9453081    
    176000   308.58846      799.18508      335.74291      1134.928      -3042.7545      3659.6686      1.952551     
    177000   297.91409      807.93983      324.12924      1132.0691     -2192.0529      3689.0443      1.9370029    
    178000   301.84775      804.72238      328.40904      1133.1314     -3432.1432      3667.6199      1.9483179    
    179000   285.8637       776.28068      311.01847      1087.2992      1179.3226      3653.9613      1.9556007    
    180000   294.21616      809.47789      320.10591      1129.5838      7473.1279      3658.909       1.9529563    
    181000   288.8936       810.98583      314.31499      1125.3008     -809.73025      3680.2657      1.9416233    
    182000   312.40466      825.60434      339.89492      1165.4993     -3377.8973      3690.8702      1.9360446    
    183000   311.22682      789.01798      338.61343      1127.6314      496.01956      3684.8724      1.9391959    
    184000   287.16414      791.70807      312.43334      1104.1414      4796.3876      3676.2388      1.9437501    
    185000   307.28918      809.89913      334.3293       1144.2284      10487.743      3639.7539      1.9632342    
    186000   275.82064      792.92519      300.09166      1093.0169      2625.6733      3682.5687      1.940409     
    187000   290.19503      823.36536      315.73093      1139.0963      80.295296      3687.2568      1.9379419    
    188000   295.38426      809.64336      321.37679      1131.0201      6813.6793      3672.6889      1.9456289    
    189000   296.21919      859.82891      322.28519      1182.1141      3763.4545      3681.0463      1.9412115    
    190000   315.52718      800.97838      343.2922       1144.2706      2792.2721      3654.286       1.955427     
    191000   276.0986       800.2913       300.39408      1100.6854     -762.86501      3682.1087      1.9406514    
    192000   299.77004      805.67333      326.14851      1131.8218      5006.767       3716.2715      1.9228115    
    193000   294.69641      809.83565      320.62842      1130.4641      6175.8491      3674.593       1.9446207    
    194000   308.88879      810.63522      336.06966      1146.7049      1012.478       3696.05        1.9333314    
    195000   306.14191      783.05629      333.08107      1116.1374      5304.4546      3668.3124      1.9479501    
    196000   300.20254      817.81155      326.61906      1144.4306      1320.7799      3663.3049      1.9506128    
    197000   293.39526      796.11341      319.21277      1115.3262     -2507.1231      3681.0823      1.9411925    
    198000   293.68886      789.89169      319.5322       1109.4239     -531.15559      3682.7254      1.9403264    
    199000   305.24594      810.45248      332.10626      1142.5587     -938.69822      3680.7871      1.9413482    
    200000   290.01828      798.64923      315.53863      1114.1879      5142.9591      3676.2028      1.9437691    
    200055   283.98455      820.53063      308.97396      1129.5046      3448.8485      3668.9545      1.9476092    
Loop time of 28.7975 on 1 procs for 100000 steps with 366 atoms

Performance: 300.026 ns/day, 0.080 hours/ns, 3472.522 timesteps/s, 1.271 Matom-step/s
99.8% CPU use with 1 MPI tasks x 1 OpenMP threads

MPI task timing breakdown:
Section |  min time  |  avg time  |  max time  |%varavg| %total
---------------------------------------------------------------
Pair    | 16.37      | 16.37      | 16.37      |   0.0 | 56.84
Bond    | 5.7233     | 5.7233     | 5.7233     |   0.0 | 19.87
Neigh   | 4.5653     | 4.5653     | 4.5653     |   0.0 | 15.85
Comm    | 0.59985    | 0.59985    | 0.59985    |   0.0 |  2.08
Output  | 0.55179    | 0.55179    | 0.55179    |   0.0 |  1.92
Modify  | 0.83693    | 0.83693    | 0.83693    |   0.0 |  2.91
Other   |            | 0.1508     |            |       |  0.52

Nlocal:            366 ave         366 max         366 min
Histogram: 1 0 0 0 0 0 0 0 0 0
Nghost:           2338 ave        2338 max        2338 min
Histogram: 1 0 0 0 0 0 0 0 0 0
Neighs:          24839 ave       24839 max       24839 min
Histogram: 1 0 0 0 0 0 0 0 0 0

Total # of neighbors = 24839
Ave neighs/atom = 67.86612
Ave special neighs/atom = 6.557377
Neighbor list builds = 1711
Dangerous builds = 0
unfix           npt_relax

# fix nvt_heat    all nvt temp 300 1000 ${thermal_damp}
# run 100000      # 100 picoseconds
# unfix           nvt_heat
#
# fix npt_heat    all npt temp 1000 1000 ${thermal_damp} iso 0 0 ${pressure_damp}
# run 100000      # 100 picoseconds
# unfix           npt_heat
#
# fix cooling_npt all npt temp 1000 300 ${thermal_damp} iso 0 0 ${pressure_damp}
# run 700000      # 700 picoseconds
# unfix           cooling_npt
#
# fix npt_final   all npt temp 300 300 ${thermal_damp} iso 0 0 100
# run 100000      # 100 picoseconds
# unfix           npt_final

# density computation
variable rho equal density
fix integrate  all npt temp ${temp} ${temp} ${thermal_damp} iso 0 0 ${pressure_damp}
fix integrate  all npt temp 300 ${temp} ${thermal_damp} iso 0 0 ${pressure_damp}
fix integrate  all npt temp 300 300 ${thermal_damp} iso 0 0 ${pressure_damp}
fix integrate  all npt temp 300 300 100.0 iso 0 0 ${pressure_damp}
fix integrate  all npt temp 300 300 100.0 iso 0 0 500.0
fix rho50k all ave/time 10 5000 50000 v_rho mode scalar ave one
run 50000
Generated 6 of 6 mixed pair_coeff terms from arithmetic mixing rule
WARNING: Inconsistent image flags
For more information see https://docs.lammps.org/err0027 (src/domain.cpp:1052)
Per MPI rank memory allocation (min/avg/max) = 19.49 | 19.49 | 19.49 Mbytes
   Step          Temp          PotEng         KinEng         TotEng         Press          Volume        Density    
    200055   283.98455      820.53063      308.97396      1129.5046      3448.8485      3668.9545      1.9476092    
    201000   312.47751      841.30503      339.97418      1181.2792      1368.5593      3674.1968      1.9448304    
    202000   314.30203      795.58249      341.95924      1137.5417     -4974.2606      3687.7205      1.9376982    
    203000   292.06547      802.65515      317.76597      1120.4211     -668.91125      3683.2654      1.9400419    
    204000   303.2188       821.13748      329.90074      1151.0382     -1315.3555      3672.4384      1.9457616    
    205000   289.96577      816.96035      315.4815       1132.4418      3740.8218      3662.8398      1.9508605    
    206000   322.24548      779.29314      350.60168      1129.8948      2419.6694      3655.6809      1.9546808    
    207000   290.77585      791.28125      316.36286      1107.6441     -1136.583       3673.3104      1.9452997    
    208000   304.95668      792.97981      331.79154      1124.7714     -327.55995      3681.714       1.9408595    
    209000   293.21121      800.20832      319.01252      1119.2208     -662.18289      3664.4319      1.9500129    
    210000   299.21769      808.8598       325.54755      1134.4073     -1853.1264      3671.1914      1.9464225    
    211000   303.72127      802.43128      330.44743      1132.8787     -318.25201      3682.3614      1.9405183    
    212000   314.15471      810.97693      341.79896      1152.7759     -1806.4525      3674.5458      1.9446457    
    213000   303.92129      807.64043      330.66504      1138.3055     -10258.977      3703.6722      1.9293526    
    214000   294.45929      804.39988      320.37044      1124.7703     -891.63879      3682.6848      1.9403479    
    215000   302.90207      828.29472      329.55614      1157.8509     -2332.5304      3674.6759      1.9445768    
    216000   301.46912      810.38937      327.99709      1138.3865     -7891.9167      3675.1841      1.9443079    
    217000   291.82072      790.95805      317.49968      1108.4577     -13487.933      3710.3584      1.9258758    
    218000   319.84263      794.18808      347.9874       1142.1755      814.14048      3665.7717      1.9493002    
    219000   292.62849      810.51835      318.37853      1128.8969      2376.7087      3663.8275      1.9503346    
    220000   298.6903       808.94876      324.97376      1133.9225     -6229.6496      3707.6901      1.9272618    
    221000   304.6814       831.55028      331.49205      1163.0423      2239.1223      3676.1432      1.9438006    
    222000   302.23977      803.83025      328.83557      1132.6658      656.54774      3678.3711      1.9426233    
    223000   308.53708      828.20596      335.68701      1163.893       3426.3189      3662.1859      1.9512088    
    224000   291.26402      797.50483      316.89399      1114.3988     -1353.8205      3669.0769      1.9475442    
    225000   290.77638      807.5356       316.36344      1123.899       2393.9716      3655.6087      1.9547195    
    226000   295.34547      820.98916      321.33459      1142.3237     -1945.2252      3690.5157      1.9362306    
    227000   292.10129      801.26099      317.80494      1119.0659      5917.9705      3649.0679      1.9582232    
    228000   285.79114      801.76841      310.93953      1112.7079      1456.5965      3644.0399      1.9609251    
    229000   305.13411      806.67694      331.98459      1138.6615      777.10031      3663.6276      1.950441     
    230000   269.78229      800.13846      293.52196      1093.6604     -6597.9946      3700.2711      1.9311259    
    231000   305.87594      797.09114      332.7917       1129.8828      2370.9748      3674.0101      1.9449292    
    232000   320.3706       807.9794       348.56183      1156.5412      7098.7271      3681.5103      1.9409669    
    233000   289.39574      807.33763      314.86131      1122.1989      8219.5781      3669.0676      1.9475492    
    234000   316.79172      843.05242      344.66802      1187.7204      4715.0598      3674.4335      1.9447051    
    235000   304.58172      798.54103      331.38359      1129.9246     -1983.3446      3689.7014      1.9366579    
    236000   293.7866       815.26483      319.63855      1134.9034      5952.0609      3651.4086      1.9569679    
    237000   282.13992      787.18802      306.96701      1094.155      -6182.5792      3684.9864      1.9391359    
    238000   296.96006      818.89162      323.09126      1141.9829      108.26448      3673.8097      1.9450353    
    239000   319.22343      820.75825      347.31371      1168.072      -6000.9118      3673.1169      1.9454021    
    240000   283.75021      820.44747      308.719        1129.1665      4618.9568      3660.951       1.951867     
    241000   307.40703      827.41585      334.45752      1161.8734      7242.2799      3660.5925      1.9520582    
    242000   301.58719      816.91243      328.12555      1145.038      -1799.7824      3664.3182      1.9500734    
    243000   297.92516      789.7398       324.14129      1113.8811      2778.1588      3670.7181      1.9466734    
    244000   299.12847      831.38936      325.45048      1156.8398     -4582.1956      3682.1912      1.9406079    
    245000   281.30664      812.76511      306.06041      1118.8255      947.70318      3669.4123      1.9473662    
    246000   313.00458      830.52409      340.54763      1171.0717     -5110.3434      3687.5744      1.937775     
    247000   299.08293      814.07728      325.40093      1139.4782      8381.8089      3644.7713      1.9605317    
    248000   287.77595      818.03745      313.09898      1131.1364     -2531.4644      3679.5083      1.9420229    
    249000   292.74372      842.38619      318.50389      1160.8901     -1838.0776      3696.5728      1.9330579    
    250000   282.49219      793.45911      307.35028      1100.8094     -982.95558      3669.0696      1.9475481    
    250055   285.89117      786.84385      311.04835      1097.8922     -1742.6107      3677.1924      1.943246     
Loop time of 13.677 on 1 procs for 50000 steps with 366 atoms

Performance: 315.859 ns/day, 0.076 hours/ns, 3655.780 timesteps/s, 1.338 Matom-step/s
99.7% CPU use with 1 MPI tasks x 1 OpenMP threads

MPI task timing breakdown:
Section |  min time  |  avg time  |  max time  |%varavg| %total
---------------------------------------------------------------
Pair    | 7.7753     | 7.7753     | 7.7753     |   0.0 | 56.85
Bond    | 2.7152     | 2.7152     | 2.7152     |   0.0 | 19.85
Neigh   | 2.1623     | 2.1623     | 2.1623     |   0.0 | 15.81
Comm    | 0.28366    | 0.28366    | 0.28366    |   0.0 |  2.07
Output  | 0.27139    | 0.27139    | 0.27139    |   0.0 |  1.98
Modify  | 0.39725    | 0.39725    | 0.39725    |   0.0 |  2.90
Other   |            | 0.07187    |            |       |  0.53

Nlocal:            366 ave         366 max         366 min
Histogram: 1 0 0 0 0 0 0 0 0 0
Nghost:           2344 ave        2344 max        2344 min
Histogram: 1 0 0 0 0 0 0 0 0 0
Neighs:          24911 ave       24911 max       24911 min
Histogram: 1 0 0 0 0 0 0 0 0 0

Total # of neighbors = 24911
Ave neighs/atom = 68.062842
Ave special neighs/atom = 6.557377
Neighbor list builds = 855
Dangerous builds = 0
unfix integrate
unfix rho50k

# Compute initial state
fix 3 all box/relax  aniso 0.0
minimize ${etol} ${ftol} ${maxiter} ${maxeval}
minimize 0 ${ftol} ${maxiter} ${maxeval}
minimize 0 1e-10 ${maxiter} ${maxeval}
minimize 0 1e-10 100000 ${maxeval}
minimize 0 1e-10 100000 100000
Generated 6 of 6 mixed pair_coeff terms from arithmetic mixing rule
WARNING: Energy due to 3 extra global DOFs will be included in minimizer energies
 (src/min.cpp:222)
WARNING: Inconsistent image flags
For more information see https://docs.lammps.org/err0027 (src/domain.cpp:1052)
Per MPI rank memory allocation (min/avg/max) = 20.6 | 20.6 | 20.6 Mbytes
   Step          Temp          PotEng         KinEng         TotEng         Press          Volume        Density    
    250055   285.89117      786.84385      311.04835      1097.8922     -1742.6107      3677.1924      1.943246     
    250291   285.89117      556.29055      311.04835      867.3389       3454.0831      3671.0125      1.9465173    
Loop time of 0.0637381 on 1 procs for 236 steps with 366 atoms

100.0% CPU use with 1 MPI tasks x 1 OpenMP threads

Minimization stats:
  Stopping criterion = linesearch alpha is zero
  Energy initial, next-to-last, final = 
      786.843848454114   556.290548839729   556.290548839729
  Force two-norm initial, final = 890.39167 137.1086
  Force max component initial, final = 369.59608 24.250669
  Final line search alpha, max atom move = 4.9329516e-13 1.1962737e-11
  Iterations, force evaluations = 236 259

MPI task timing breakdown:
Section |  min time  |  avg time  |  max time  |%varavg| %total
---------------------------------------------------------------
Pair    | 0.04252    | 0.04252    | 0.04252    |   0.0 | 66.71
Bond    | 0.012846   | 0.012846   | 0.012846   |   0.0 | 20.15
Neigh   | 0          | 0          | 0          |   0.0 |  0.00
Comm    | 0.001158   | 0.001158   | 0.001158   |   0.0 |  1.82
Output  | 0.00087686 | 0.00087686 | 0.00087686 |   0.0 |  1.38
Modify  | 0          | 0          | 0          |   0.0 |  0.00
Other   |            | 0.006337   |            |       |  9.94

Nlocal:            366 ave         366 max         366 min
Histogram: 1 0 0 0 0 0 0 0 0 0
Nghost:           2360 ave        2360 max        2360 min
Histogram: 1 0 0 0 0 0 0 0 0 0
Neighs:          24871 ave       24871 max       24871 min
Histogram: 1 0 0 0 0 0 0 0 0 0

Total # of neighbors = 24871
Ave neighs/atom = 67.953552
Ave special neighs/atom = 6.557377
Neighbor list builds = 0
Dangerous builds = 0

variable tmp equal pxx
variable pxx0 equal ${tmp}
variable pxx0 equal 3494.16643022391
variable tmp equal pyy
variable pyy0 equal ${tmp}
variable pyy0 equal 3378.05929242089
variable tmp equal pzz
variable pzz0 equal ${tmp}
variable pzz0 equal 3490.02353203983
variable tmp equal pyz
variable pyz0 equal ${tmp}
variable pyz0 equal 2354.83377035804
variable tmp equal pxz
variable pxz0 equal ${tmp}
variable pxz0 equal 6551.9749383822
variable tmp equal pxy
variable pxy0 equal ${tmp}
variable pxy0 equal -618.662435591372

variable tmp equal lx
variable lx0 equal ${tmp}
variable lx0 equal 15.6587173584458
variable tmp equal ly
variable ly0 equal ${tmp}
variable ly0 equal 13.5406158532753
variable tmp equal lz
variable lz0 equal ${tmp}
variable lz0 equal 17.3137548641745

# These formulas define the derivatives w.r.t. strain components
# Constants uses $, variables use v_
variable d1 equal -(v_pxx1-${pxx0})/(v_delta/v_len0)*${cfac}
variable d1 equal -(v_pxx1-3494.16643022391)/(v_delta/v_len0)*${cfac}
variable d1 equal -(v_pxx1-3494.16643022391)/(v_delta/v_len0)*0.0001
variable d2 equal -(v_pyy1-${pyy0})/(v_delta/v_len0)*${cfac}
variable d2 equal -(v_pyy1-3378.05929242089)/(v_delta/v_len0)*${cfac}
variable d2 equal -(v_pyy1-3378.05929242089)/(v_delta/v_len0)*0.0001
variable d3 equal -(v_pzz1-${pzz0})/(v_delta/v_len0)*${cfac}
variable d3 equal -(v_pzz1-3490.02353203983)/(v_delta/v_len0)*${cfac}
variable d3 equal -(v_pzz1-3490.02353203983)/(v_delta/v_len0)*0.0001
variable d4 equal -(v_pyz1-${pyz0})/(v_delta/v_len0)*${cfac}
variable d4 equal -(v_pyz1-2354.83377035804)/(v_delta/v_len0)*${cfac}
variable d4 equal -(v_pyz1-2354.83377035804)/(v_delta/v_len0)*0.0001
variable d5 equal -(v_pxz1-${pxz0})/(v_delta/v_len0)*${cfac}
variable d5 equal -(v_pxz1-6551.9749383822)/(v_delta/v_len0)*${cfac}
variable d5 equal -(v_pxz1-6551.9749383822)/(v_delta/v_len0)*0.0001
variable d6 equal -(v_pxy1-${pxy0})/(v_delta/v_len0)*${cfac}
variable d6 equal -(v_pxy1--618.662435591372)/(v_delta/v_len0)*${cfac}
variable d6 equal -(v_pxy1--618.662435591372)/(v_delta/v_len0)*0.0001

# displace_atoms all random ${atomjiggle} ${atomjiggle} ${atomjiggle} 87287 units box

# Write restart
unfix 3
write_restart restart_333-HD-100C-14-VASP.equil
System init for write_restart ...
Generated 6 of 6 mixed pair_coeff terms from arithmetic mixing rule

# uxx Perturbation

variable dir equal 1
include ./input/displace_333-HD-100C-14-VASP.mod
if "${dir} == 1" then    "variable len0 equal ${lx0}"
variable len0 equal ${lx0}
variable len0 equal 15.6587173584458
if "${dir} == 2" then    "variable len0 equal ${ly0}"
if "${dir} == 3" then    "variable len0 equal ${lz0}"
if "${dir} == 4" then    "variable len0 equal ${lz0}"
if "${dir} == 5" then    "variable len0 equal ${lz0}"
if "${dir} == 6" then    "variable len0 equal ${ly0}"

# Reset box and simulation parameters

clear
OMP_NUM_THREADS environment is not set. Defaulting to 1 thread.
  using 1 OpenMP thread(s) per MPI task
box tilt large

The 'box' command has been removed and will be ignored

read_restart restart_333-HD-100C-14-VASP.equil
Reading restart file ...
  restart file = 10 Sep 2025, LAMMPS = 10 Sep 2025
  restoring atom style full from restart
  triclinic box = (-0.056255179 -0.037331427 -0.033645932) to (15.602462 13.503284 17.280109) with tilt (-7.6260158 0.17849775 0.43883257)
WARNING: Triclinic box skew is large. LAMMPS will run inefficiently. (src/domain.cpp:221)
  1 by 1 by 1 MPI processor grid
  restoring pair style lj/cut from restart
  restoring bond style harmonic from restart
  restoring angle style hybrid from restart
  restoring dihedral style harmonic from restart
  366 atoms
  408 bonds
  792 angles
  1080 dihedrals
Finding 1-2 1-3 1-4 neighbors ...
  special bond factors lj:    0        0        1       
  special bond factors coul:  0        0        1       
     4 = max # of 1-2 neighbors
    10 = max # of 1-3 neighbors
    14 = max # of special neighbors
  special bonds CPU = 0.000 seconds
  read_restart CPU = 0.002 seconds
include ./input/angles_333-HD-100C-14-VASP.mod
angle_style hybrid fourier cosine/periodic
angle_coeff 1 fourier 157.882480        0.343737        0.374972        0.281246
angle_coeff 2 fourier 221.735285        0.343737        0.374972        0.281246
angle_coeff 3 fourier 114.246973        0.343737        0.374972        0.281246
angle_coeff 4 fourier 90.420412        0.343737        0.374972        0.281246
angle_coeff 5 fourier 75.498766        0.343737        0.374972        0.281246
angle_coeff 6 cosine/periodic 88.853997              -1               3

# Negative deformation

variable delta equal -${up}*${len0}
variable delta equal -0.02*${len0}
variable delta equal -0.02*15.6587173584458
variable deltaxy equal -${up}*xy
variable deltaxy equal -0.02*xy
variable deltaxz equal -${up}*xz
variable deltaxz equal -0.02*xz
variable deltayz equal -${up}*yz
variable deltayz equal -0.02*yz
if "${dir} == 1" then    "change_box all x delta 0 ${delta} xy delta ${deltaxy} xz delta ${deltaxz} remap units box"
change_box all x delta 0 ${delta} xy delta ${deltaxy} xz delta ${deltaxz} remap units box
change_box all x delta 0 -0.313174347168916 xy delta ${deltaxy} xz delta ${deltaxz} remap units box
change_box all x delta 0 -0.313174347168916 xy delta 0.1525203158667 xz delta ${deltaxz} remap units box
change_box all x delta 0 -0.313174347168916 xy delta 0.1525203158667 xz delta -0.00356995503352763 remap units box
Changing box ...
WARNING: Triclinic box skew is large. LAMMPS will run inefficiently. (src/domain.cpp:221)
  triclinic box = (-0.056255179 -0.037331427 -0.033645932) to (15.289288 13.503284 17.280109) with tilt (-7.6260158 0.17849775 0.43883257)
WARNING: Triclinic box skew is large. LAMMPS will run inefficiently. (src/domain.cpp:221)
  triclinic box = (-0.056255179 -0.037331427 -0.033645932) to (15.289288 13.503284 17.280109) with tilt (-7.4734955 0.17849775 0.43883257)
WARNING: Triclinic box skew is large. LAMMPS will run inefficiently. (src/domain.cpp:221)
  triclinic box = (-0.056255179 -0.037331427 -0.033645932) to (15.289288 13.503284 17.280109) with tilt (-7.4734955 0.1749278 0.43883257)
if "${dir} == 2" then    "change_box all y delta 0 ${delta} yz delta ${deltayz} remap units box"
if "${dir} == 3" then    "change_box all z delta 0 ${delta} remap units box"
if "${dir} == 4" then    "change_box all yz delta ${delta} remap units box"
if "${dir} == 5" then    "change_box all xz delta ${delta} remap units box"
if "${dir} == 6" then    "change_box all xy delta ${delta} remap units box"

# Relax atoms positions

minimize ${etol} ${ftol} ${maxiter} ${maxeval}
minimize 0 ${ftol} ${maxiter} ${maxeval}
minimize 0 1e-10 ${maxiter} ${maxeval}
minimize 0 1e-10 100000 ${maxeval}
minimize 0 1e-10 100000 100000
Generated 6 of 6 mixed pair_coeff terms from arithmetic mixing rule
Neighbor list info ...
  update: every = 1 steps, delay = 0 steps, check = yes
  max neighbors/atom: 2000, page size: 100000
  master list distance cutoff = 7
  ghost atom cutoff = 7
  binsize = 3.5, bins = 7 4 5
  1 neighbor lists, perpetual/occasional/extra = 1 0 0
  (1) pair lj/cut, perpetual
      attributes: half, newton on
      pair build: half/bin/newton/tri
      stencil: half/bin/3d/tri
      bin: standard
WARNING: Inconsistent image flags
For more information see https://docs.lammps.org/err0027 (src/domain.cpp:1052)
Per MPI rank memory allocation (min/avg/max) = 19.53 | 19.53 | 19.53 Mbytes
   Step          Temp          E_pair         E_mol          TotEng         Press     
    250291   285.89117     -390.73693      982.20017      902.5116       35667.879    
    250317   285.89117     -405.81286      896.47146      801.70695      16949.151    
Loop time of 0.0236346 on 1 procs for 26 steps with 366 atoms

100.0% CPU use with 1 MPI tasks x 1 OpenMP threads

Minimization stats:
  Stopping criterion = linesearch alpha is zero
  Energy initial, next-to-last, final = 
       591.46324277269    490.65859064733    490.65859064733
  Force two-norm initial, final = 211.05603 16.015786
  Force max component initial, final = 23.816262 2.3801148
  Final line search alpha, max atom move = 2.7340275e-11 6.5072994e-11
  Iterations, force evaluations = 26 109

MPI task timing breakdown:
Section |  min time  |  avg time  |  max time  |%varavg| %total
---------------------------------------------------------------
Pair    | 0.018175   | 0.018175   | 0.018175   |   0.0 | 76.90
Bond    | 0.0045926  | 0.0045926  | 0.0045926  |   0.0 | 19.43
Neigh   | 0          | 0          | 0          |   0.0 |  0.00
Comm    | 0.00051401 | 0.00051401 | 0.00051401 |   0.0 |  2.17
Output  | 0          | 0          | 0          |   0.0 |  0.00
Modify  | 0          | 0          | 0          |   0.0 |  0.00
Other   |            | 0.000353   |            |       |  1.49

Nlocal:            366 ave         366 max         366 min
Histogram: 1 0 0 0 0 0 0 0 0 0
Nghost:           2380 ave        2380 max        2380 min
Histogram: 1 0 0 0 0 0 0 0 0 0
Neighs:          25426 ave       25426 max       25426 min
Histogram: 1 0 0 0 0 0 0 0 0 0

Total # of neighbors = 25426
Ave neighs/atom = 69.469945
Ave special neighs/atom = 6.557377
Neighbor list builds = 0
Dangerous builds = 0

# Obtain new stress tensor

variable tmp equal pxx
variable pxx1 equal ${tmp}
variable pxx1 equal 31166.8613782956
variable tmp equal pyy
variable pyy1 equal ${tmp}
variable pyy1 equal 12353.8950672908
variable tmp equal pzz
variable pzz1 equal ${tmp}
variable pzz1 equal 7326.69628013336
variable tmp equal pxy
variable pxy1 equal ${tmp}
variable pxy1 equal -937.176029967703
variable tmp equal pxz
variable pxz1 equal ${tmp}
variable pxz1 equal 7120.02875182394
variable tmp equal pyz
variable pyz1 equal ${tmp}
variable pyz1 equal 3439.04976675527

# Compute elastic constant from pressure tensor

variable C1neg equal ${d1}
variable C1neg equal 138.363474740358
variable C2neg equal ${d2}
variable C2neg equal 44.8791788743495
variable C3neg equal ${d3}
variable C3neg equal 19.1833637404677
variable C4neg equal ${d4}
variable C4neg equal 5.42107998198615
variable C5neg equal ${d5}
variable C5neg equal 2.8402690672087
variable C6neg equal ${d6}
variable C6neg equal -1.59256797188166

# Reset box and simulation parameters

clear
OMP_NUM_THREADS environment is not set. Defaulting to 1 thread.
  using 1 OpenMP thread(s) per MPI task
box tilt large

The 'box' command has been removed and will be ignored

read_restart restart_333-HD-100C-14-VASP.equil
Reading restart file ...
  restart file = 10 Sep 2025, LAMMPS = 10 Sep 2025
  restoring atom style full from restart
  triclinic box = (-0.056255179 -0.037331427 -0.033645932) to (15.602462 13.503284 17.280109) with tilt (-7.6260158 0.17849775 0.43883257)
WARNING: Triclinic box skew is large. LAMMPS will run inefficiently. (src/domain.cpp:221)
  1 by 1 by 1 MPI processor grid
  restoring pair style lj/cut from restart
  restoring bond style harmonic from restart
  restoring angle style hybrid from restart
  restoring dihedral style harmonic from restart
  366 atoms
  408 bonds
  792 angles
  1080 dihedrals
Finding 1-2 1-3 1-4 neighbors ...
  special bond factors lj:    0        0        1       
  special bond factors coul:  0        0        1       
     4 = max # of 1-2 neighbors
    10 = max # of 1-3 neighbors
    14 = max # of special neighbors
  special bonds CPU = 0.000 seconds
  read_restart CPU = 0.002 seconds
include ./input/angles_333-HD-100C-14-VASP.mod
angle_style hybrid fourier cosine/periodic
angle_coeff 1 fourier 157.882480        0.343737        0.374972        0.281246
angle_coeff 2 fourier 221.735285        0.343737        0.374972        0.281246
angle_coeff 3 fourier 114.246973        0.343737        0.374972        0.281246
angle_coeff 4 fourier 90.420412        0.343737        0.374972        0.281246
angle_coeff 5 fourier 75.498766        0.343737        0.374972        0.281246
angle_coeff 6 cosine/periodic 88.853997              -1               3

# Positive deformation

variable delta equal ${up}*${len0}
variable delta equal 0.02*${len0}
variable delta equal 0.02*15.6587173584458
variable deltaxy equal ${up}*xy
variable deltaxy equal 0.02*xy
variable deltaxz equal ${up}*xz
variable deltaxz equal 0.02*xz
variable deltayz equal ${up}*yz
variable deltayz equal 0.02*yz
if "${dir} == 1" then    "change_box all x delta 0 ${delta} xy delta ${deltaxy} xz delta ${deltaxz} remap units box"
change_box all x delta 0 ${delta} xy delta ${deltaxy} xz delta ${deltaxz} remap units box
change_box all x delta 0 0.313174347168916 xy delta ${deltaxy} xz delta ${deltaxz} remap units box
change_box all x delta 0 0.313174347168916 xy delta -0.1525203158667 xz delta ${deltaxz} remap units box
change_box all x delta 0 0.313174347168916 xy delta -0.1525203158667 xz delta 0.00356995503352763 remap units box
Changing box ...
WARNING: Triclinic box skew is large. LAMMPS will run inefficiently. (src/domain.cpp:221)
  triclinic box = (-0.056255179 -0.037331427 -0.033645932) to (15.915637 13.503284 17.280109) with tilt (-7.6260158 0.17849775 0.43883257)
WARNING: Triclinic box skew is large. LAMMPS will run inefficiently. (src/domain.cpp:221)
  triclinic box = (-0.056255179 -0.037331427 -0.033645932) to (15.915637 13.503284 17.280109) with tilt (-7.7785361 0.17849775 0.43883257)
WARNING: Triclinic box skew is large. LAMMPS will run inefficiently. (src/domain.cpp:221)
  triclinic box = (-0.056255179 -0.037331427 -0.033645932) to (15.915637 13.503284 17.280109) with tilt (-7.7785361 0.18206771 0.43883257)
if "${dir} == 2" then    "change_box all y delta 0 ${delta} yz delta ${deltayz} remap units box"
if "${dir} == 3" then    "change_box all z delta 0 ${delta} remap units box"
if "${dir} == 4" then    "change_box all yz delta ${delta} remap units box"
if "${dir} == 5" then    "change_box all xz delta ${delta} remap units box"
if "${dir} == 6" then    "change_box all xy delta ${delta} remap units box"

# Relax atoms positions

minimize ${etol} ${ftol} ${maxiter} ${maxeval}
minimize 0 ${ftol} ${maxiter} ${maxeval}
minimize 0 1e-10 ${maxiter} ${maxeval}
minimize 0 1e-10 100000 ${maxeval}
minimize 0 1e-10 100000 100000
Generated 6 of 6 mixed pair_coeff terms from arithmetic mixing rule
Neighbor list info ...
  update: every = 1 steps, delay = 0 steps, check = yes
  max neighbors/atom: 2000, page size: 100000
  master list distance cutoff = 7
  ghost atom cutoff = 7
  binsize = 3.5, bins = 7 4 5
  1 neighbor lists, perpetual/occasional/extra = 1 0 0
  (1) pair lj/cut, perpetual
      attributes: half, newton on
      pair build: half/bin/newton/tri
      stencil: half/bin/3d/tri
      bin: standard
WARNING: Inconsistent image flags
For more information see https://docs.lammps.org/err0027 (src/domain.cpp:1052)
Per MPI rank memory allocation (min/avg/max) = 19.52 | 19.52 | 19.52 Mbytes
   Step          Temp          E_pair         E_mol          TotEng         Press     
    250291   285.89117     -454.70929      1045.9834      902.3225      -27435.292    
    250338   285.89117     -477.62361      969.11771      802.54245     -14810.607    
Loop time of 0.0309773 on 1 procs for 47 steps with 366 atoms

100.0% CPU use with 1 MPI tasks x 1 OpenMP threads

Minimization stats:
  Stopping criterion = linesearch alpha is zero
  Energy initial, next-to-last, final = 
      591.274140647535   491.494094490243   491.494094490243
  Force two-norm initial, final = 212.37518 9.3287152
  Force max component initial, final = 25.636439 1.604746
  Final line search alpha, max atom move = 1.0631562e-10 1.7060956e-10
  Iterations, force evaluations = 47 147

MPI task timing breakdown:
Section |  min time  |  avg time  |  max time  |%varavg| %total
---------------------------------------------------------------
Pair    | 0.023574   | 0.023574   | 0.023574   |   0.0 | 76.10
Bond    | 0.0061959  | 0.0061959  | 0.0061959  |   0.0 | 20.00
Neigh   | 0          | 0          | 0          |   0.0 |  0.00
Comm    | 0.00068987 | 0.00068987 | 0.00068987 |   0.0 |  2.23
Output  | 0          | 0          | 0          |   0.0 |  0.00
Modify  | 0          | 0          | 0          |   0.0 |  0.00
Other   |            | 0.0005173  |            |       |  1.67

Nlocal:            366 ave         366 max         366 min
Histogram: 1 0 0 0 0 0 0 0 0 0
Nghost:           2326 ave        2326 max        2326 min
Histogram: 1 0 0 0 0 0 0 0 0 0
Neighs:          24391 ave       24391 max       24391 min
Histogram: 1 0 0 0 0 0 0 0 0 0

Total # of neighbors = 24391
Ave neighs/atom = 66.642077
Ave special neighs/atom = 6.557377
Neighbor list builds = 0
Dangerous builds = 0

# Obtain new stress tensor

variable tmp equal pe
variable e1 equal ${tmp}
variable e1 equal 491.494094490243
variable tmp equal press
variable p1 equal ${tmp}
variable p1 equal -14810.6069716186
variable tmp equal pxx
variable pxx1 equal ${tmp}
variable pxx1 equal -23665.4427635543
variable tmp equal pyy
variable pyy1 equal ${tmp}
variable pyy1 equal -7447.48641600309
variable tmp equal pzz
variable pzz1 equal ${tmp}
variable pzz1 equal -13318.8917352983
variable tmp equal pxy
variable pxy1 equal ${tmp}
variable pxy1 equal -479.347741603849
variable tmp equal pxz
variable pxz1 equal ${tmp}
variable pxz1 equal 4498.38377732752
variable tmp equal pyz
variable pyz1 equal ${tmp}
variable pyz1 equal 3422.13250220833

# Compute elastic constant from pressure tensor

variable C1pos equal ${d1}
variable C1pos equal 135.798045968891
variable C2pos equal ${d2}
variable C2pos equal 54.1277285421199
variable C3pos equal ${d3}
variable C3pos equal 84.0445763366907
variable C4pos equal ${d4}
variable C4pos equal -5.33649365925145
variable C5pos equal ${d5}
variable C5pos equal 10.2679558052734
variable C6pos equal ${d6}
variable C6pos equal -0.696573469937615

# Combine positive and negative

variable C1${dir} equal 0.5*(${C1neg}+${C1pos})
variable C11 equal 0.5*(${C1neg}+${C1pos})
variable C11 equal 0.5*(138.363474740358+${C1pos})
variable C11 equal 0.5*(138.363474740358+135.798045968891)
variable C2${dir} equal 0.5*(${C2neg}+${C2pos})
variable C21 equal 0.5*(${C2neg}+${C2pos})
variable C21 equal 0.5*(44.8791788743495+${C2pos})
variable C21 equal 0.5*(44.8791788743495+54.1277285421199)
variable C3${dir} equal 0.5*(${C3neg}+${C3pos})
variable C31 equal 0.5*(${C3neg}+${C3pos})
variable C31 equal 0.5*(19.1833637404677+${C3pos})
variable C31 equal 0.5*(19.1833637404677+84.0445763366907)
variable C4${dir} equal 0.5*(${C4neg}+${C4pos})
variable C41 equal 0.5*(${C4neg}+${C4pos})
variable C41 equal 0.5*(5.42107998198615+${C4pos})
variable C41 equal 0.5*(5.42107998198615+-5.33649365925145)
variable C5${dir} equal 0.5*(${C5neg}+${C5pos})
variable C51 equal 0.5*(${C5neg}+${C5pos})
variable C51 equal 0.5*(2.8402690672087+${C5pos})
variable C51 equal 0.5*(2.8402690672087+10.2679558052734)
variable C6${dir} equal 0.5*(${C6neg}+${C6pos})
variable C61 equal 0.5*(${C6neg}+${C6pos})
variable C61 equal 0.5*(-1.59256797188166+${C6pos})
variable C61 equal 0.5*(-1.59256797188166+-0.696573469937615)

# Delete dir to make sure it is not reused

variable dir delete

# uyy Perturbation

variable dir equal 2
include ./input/displace_333-HD-100C-14-VASP.mod
if "${dir} == 1" then    "variable len0 equal ${lx0}"
if "${dir} == 2" then    "variable len0 equal ${ly0}"
variable len0 equal ${ly0}
variable len0 equal 13.5406158532753
if "${dir} == 3" then    "variable len0 equal ${lz0}"
if "${dir} == 4" then    "variable len0 equal ${lz0}"
if "${dir} == 5" then    "variable len0 equal ${lz0}"
if "${dir} == 6" then    "variable len0 equal ${ly0}"

# Reset box and simulation parameters

clear
OMP_NUM_THREADS environment is not set. Defaulting to 1 thread.
  using 1 OpenMP thread(s) per MPI task
box tilt large

The 'box' command has been removed and will be ignored

read_restart restart_333-HD-100C-14-VASP.equil
Reading restart file ...
  restart file = 10 Sep 2025, LAMMPS = 10 Sep 2025
  restoring atom style full from restart
  triclinic box = (-0.056255179 -0.037331427 -0.033645932) to (15.602462 13.503284 17.280109) with tilt (-7.6260158 0.17849775 0.43883257)
WARNING: Triclinic box skew is large. LAMMPS will run inefficiently. (src/domain.cpp:221)
  1 by 1 by 1 MPI processor grid
  restoring pair style lj/cut from restart
  restoring bond style harmonic from restart
  restoring angle style hybrid from restart
  restoring dihedral style harmonic from restart
  366 atoms
  408 bonds
  792 angles
  1080 dihedrals
Finding 1-2 1-3 1-4 neighbors ...
  special bond factors lj:    0        0        1       
  special bond factors coul:  0        0        1       
     4 = max # of 1-2 neighbors
    10 = max # of 1-3 neighbors
    14 = max # of special neighbors
  special bonds CPU = 0.000 seconds
  read_restart CPU = 0.001 seconds
include ./input/angles_333-HD-100C-14-VASP.mod
angle_style hybrid fourier cosine/periodic
angle_coeff 1 fourier 157.882480        0.343737        0.374972        0.281246
angle_coeff 2 fourier 221.735285        0.343737        0.374972        0.281246
angle_coeff 3 fourier 114.246973        0.343737        0.374972        0.281246
angle_coeff 4 fourier 90.420412        0.343737        0.374972        0.281246
angle_coeff 5 fourier 75.498766        0.343737        0.374972        0.281246
angle_coeff 6 cosine/periodic 88.853997              -1               3

# Negative deformation

variable delta equal -${up}*${len0}
variable delta equal -0.02*${len0}
variable delta equal -0.02*13.5406158532753
variable deltaxy equal -${up}*xy
variable deltaxy equal -0.02*xy
variable deltaxz equal -${up}*xz
variable deltaxz equal -0.02*xz
variable deltayz equal -${up}*yz
variable deltayz equal -0.02*yz
if "${dir} == 1" then    "change_box all x delta 0 ${delta} xy delta ${deltaxy} xz delta ${deltaxz} remap units box"
if "${dir} == 2" then    "change_box all y delta 0 ${delta} yz delta ${deltayz} remap units box"
change_box all y delta 0 ${delta} yz delta ${deltayz} remap units box
change_box all y delta 0 -0.270812317065506 yz delta ${deltayz} remap units box
change_box all y delta 0 -0.270812317065506 yz delta -0.00877665144732872 remap units box
Changing box ...
WARNING: Triclinic box skew is large. LAMMPS will run inefficiently. (src/domain.cpp:221)
  triclinic box = (-0.056255179 -0.037331427 -0.033645932) to (15.602462 13.232472 17.280109) with tilt (-7.6260158 0.17849775 0.43883257)
WARNING: Triclinic box skew is large. LAMMPS will run inefficiently. (src/domain.cpp:221)
  triclinic box = (-0.056255179 -0.037331427 -0.033645932) to (15.602462 13.232472 17.280109) with tilt (-7.6260158 0.17849775 0.43005592)
if "${dir} == 3" then    "change_box all z delta 0 ${delta} remap units box"
if "${dir} == 4" then    "change_box all yz delta ${delta} remap units box"
if "${dir} == 5" then    "change_box all xz delta ${delta} remap units box"
if "${dir} == 6" then    "change_box all xy delta ${delta} remap units box"

# Relax atoms positions

minimize ${etol} ${ftol} ${maxiter} ${maxeval}
minimize 0 ${ftol} ${maxiter} ${maxeval}
minimize 0 1e-10 ${maxiter} ${maxeval}
minimize 0 1e-10 100000 ${maxeval}
minimize 0 1e-10 100000 100000
Generated 6 of 6 mixed pair_coeff terms from arithmetic mixing rule
Neighbor list info ...
  update: every = 1 steps, delay = 0 steps, check = yes
  max neighbors/atom: 2000, page size: 100000
  master list distance cutoff = 7
  ghost atom cutoff = 7
  binsize = 3.5, bins = 7 4 5
  1 neighbor lists, perpetual/occasional/extra = 1 0 0
  (1) pair lj/cut, perpetual
      attributes: half, newton on
      pair build: half/bin/newton/tri
      stencil: half/bin/3d/tri
      bin: standard
WARNING: Inconsistent image flags
For more information see https://docs.lammps.org/err0027 (src/domain.cpp:1052)
Per MPI rank memory allocation (min/avg/max) = 19.53 | 19.53 | 19.53 Mbytes
   Step          Temp          E_pair         E_mol          TotEng         Press     
    250291   285.89117     -394.74912      985.99907      902.2983       36061.353    
    250316   285.89117     -404.75205      894.82817      801.12448      16554.333    
Loop time of 0.0236716 on 1 procs for 25 steps with 366 atoms

100.0% CPU use with 1 MPI tasks x 1 OpenMP threads

Minimization stats:
  Stopping criterion = linesearch alpha is zero
  Energy initial, next-to-last, final = 
      591.249949556646   490.076125407855   490.076125407855
  Force two-norm initial, final = 224.2565 18.026378
  Force max component initial, final = 25.093386 2.4110765
  Final line search alpha, max atom move = 2.968695e-11 7.1577506e-11
  Iterations, force evaluations = 25 107

MPI task timing breakdown:
Section |  min time  |  avg time  |  max time  |%varavg| %total
---------------------------------------------------------------
Pair    | 0.018123   | 0.018123   | 0.018123   |   0.0 | 76.56
Bond    | 0.0046214  | 0.0046214  | 0.0046214  |   0.0 | 19.52
Neigh   | 0          | 0          | 0          |   0.0 |  0.00
Comm    | 0.00055331 | 0.00055331 | 0.00055331 |   0.0 |  2.34
Output  | 0          | 0          | 0          |   0.0 |  0.00
Modify  | 0          | 0          | 0          |   0.0 |  0.00
Other   |            | 0.0003738  |            |       |  1.58

Nlocal:            366 ave         366 max         366 min
Histogram: 1 0 0 0 0 0 0 0 0 0
Nghost:           2390 ave        2390 max        2390 min
Histogram: 1 0 0 0 0 0 0 0 0 0
Neighs:          25456 ave       25456 max       25456 min
Histogram: 1 0 0 0 0 0 0 0 0 0

Total # of neighbors = 25456
Ave neighs/atom = 69.551913
Ave special neighs/atom = 6.557377
Neighbor list builds = 0
Dangerous builds = 0

# Obtain new stress tensor

variable tmp equal pxx
variable pxx1 equal ${tmp}
variable pxx1 equal 12463.5226079637
variable tmp equal pyy
variable pyy1 equal ${tmp}
variable pyy1 equal 31425.0863614494
variable tmp equal pzz
variable pzz1 equal ${tmp}
variable pzz1 equal 5774.38928642882
variable tmp equal pxy
variable pxy1 equal ${tmp}
variable pxy1 equal -1022.4439498095
variable tmp equal pxz
variable pxz1 equal ${tmp}
variable pxz1 equal 6553.3042862965
variable tmp equal pyz
variable pyz1 equal ${tmp}
variable pyz1 equal 2531.33321527654

# Compute elastic constant from pressure tensor

variable C1neg equal ${d1}
variable C1neg equal 44.846780888699
variable C2neg equal ${d2}
variable C2neg equal 140.235135345143
variable C3neg equal ${d3}
variable C3neg equal 11.421828771945
variable C4neg equal ${d4}
variable C4neg equal 0.8824972245925
variable C5neg equal ${d5}
variable C5neg equal 0.00664673957150171
variable C6neg equal ${d6}
variable C6neg equal -2.01890757109064

# Reset box and simulation parameters

clear
OMP_NUM_THREADS environment is not set. Defaulting to 1 thread.
  using 1 OpenMP thread(s) per MPI task
box tilt large

The 'box' command has been removed and will be ignored

read_restart restart_333-HD-100C-14-VASP.equil
Reading restart file ...
  restart file = 10 Sep 2025, LAMMPS = 10 Sep 2025
  restoring atom style full from restart
  triclinic box = (-0.056255179 -0.037331427 -0.033645932) to (15.602462 13.503284 17.280109) with tilt (-7.6260158 0.17849775 0.43883257)
WARNING: Triclinic box skew is large. LAMMPS will run inefficiently. (src/domain.cpp:221)
  1 by 1 by 1 MPI processor grid
  restoring pair style lj/cut from restart
  restoring bond style harmonic from restart
  restoring angle style hybrid from restart
  restoring dihedral style harmonic from restart
  366 atoms
  408 bonds
  792 angles
  1080 dihedrals
Finding 1-2 1-3 1-4 neighbors ...
  special bond factors lj:    0        0        1       
  special bond factors coul:  0        0        1       
     4 = max # of 1-2 neighbors
    10 = max # of 1-3 neighbors
    14 = max # of special neighbors
  special bonds CPU = 0.000 seconds
  read_restart CPU = 0.001 seconds
include ./input/angles_333-HD-100C-14-VASP.mod
angle_style hybrid fourier cosine/periodic
angle_coeff 1 fourier 157.882480        0.343737        0.374972        0.281246
angle_coeff 2 fourier 221.735285        0.343737        0.374972        0.281246
angle_coeff 3 fourier 114.246973        0.343737        0.374972        0.281246
angle_coeff 4 fourier 90.420412        0.343737        0.374972        0.281246
angle_coeff 5 fourier 75.498766        0.343737        0.374972        0.281246
angle_coeff 6 cosine/periodic 88.853997              -1               3

# Positive deformation

variable delta equal ${up}*${len0}
variable delta equal 0.02*${len0}
variable delta equal 0.02*13.5406158532753
variable deltaxy equal ${up}*xy
variable deltaxy equal 0.02*xy
variable deltaxz equal ${up}*xz
variable deltaxz equal 0.02*xz
variable deltayz equal ${up}*yz
variable deltayz equal 0.02*yz
if "${dir} == 1" then    "change_box all x delta 0 ${delta} xy delta ${deltaxy} xz delta ${deltaxz} remap units box"
if "${dir} == 2" then    "change_box all y delta 0 ${delta} yz delta ${deltayz} remap units box"
change_box all y delta 0 ${delta} yz delta ${deltayz} remap units box
change_box all y delta 0 0.270812317065506 yz delta ${deltayz} remap units box
change_box all y delta 0 0.270812317065506 yz delta 0.00877665144732872 remap units box
Changing box ...
WARNING: Triclinic box skew is large. LAMMPS will run inefficiently. (src/domain.cpp:221)
  triclinic box = (-0.056255179 -0.037331427 -0.033645932) to (15.602462 13.774097 17.280109) with tilt (-7.6260158 0.17849775 0.43883257)
WARNING: Triclinic box skew is large. LAMMPS will run inefficiently. (src/domain.cpp:221)
  triclinic box = (-0.056255179 -0.037331427 -0.033645932) to (15.602462 13.774097 17.280109) with tilt (-7.6260158 0.17849775 0.44760922)
if "${dir} == 3" then    "change_box all z delta 0 ${delta} remap units box"
if "${dir} == 4" then    "change_box all yz delta ${delta} remap units box"
if "${dir} == 5" then    "change_box all xz delta ${delta} remap units box"
if "${dir} == 6" then    "change_box all xy delta ${delta} remap units box"

# Relax atoms positions

minimize ${etol} ${ftol} ${maxiter} ${maxeval}
minimize 0 ${ftol} ${maxiter} ${maxeval}
minimize 0 1e-10 ${maxiter} ${maxeval}
minimize 0 1e-10 100000 ${maxeval}
minimize 0 1e-10 100000 100000
Generated 6 of 6 mixed pair_coeff terms from arithmetic mixing rule
Neighbor list info ...
  update: every = 1 steps, delay = 0 steps, check = yes
  max neighbors/atom: 2000, page size: 100000
  master list distance cutoff = 7
  ghost atom cutoff = 7
  binsize = 3.5, bins = 7 5 5
  1 neighbor lists, perpetual/occasional/extra = 1 0 0
  (1) pair lj/cut, perpetual
      attributes: half, newton on
      pair build: half/bin/newton/tri
      stencil: half/bin/3d/tri
      bin: standard
WARNING: Inconsistent image flags
For more information see https://docs.lammps.org/err0027 (src/domain.cpp:1052)
Per MPI rank memory allocation (min/avg/max) = 19.52 | 19.52 | 19.52 Mbytes
   Step          Temp          E_pair         E_mol          TotEng         Press     
    250291   285.89117     -452.06842      1044.7684      903.74831     -27884.288    
    250320   285.89117     -481.29903      973.87208      803.62141     -14837.151    
Loop time of 0.0231961 on 1 procs for 29 steps with 366 atoms

100.0% CPU use with 1 MPI tasks x 1 OpenMP threads

Minimization stats:
  Stopping criterion = linesearch alpha is zero
  Energy initial, next-to-last, final = 
      592.699955533024   492.573055172074   492.573055172074
  Force two-norm initial, final = 220.67723 14.453168
  Force max component initial, final = 23.395686 2.1676983
  Final line search alpha, max atom move = 5.6243823e-11 1.2191964e-10
  Iterations, force evaluations = 29 113

MPI task timing breakdown:
Section |  min time  |  avg time  |  max time  |%varavg| %total
---------------------------------------------------------------
Pair    | 0.017573   | 0.017573   | 0.017573   |   0.0 | 75.76
Bond    | 0.0047088  | 0.0047088  | 0.0047088  |   0.0 | 20.30
Neigh   | 0          | 0          | 0          |   0.0 |  0.00
Comm    | 0.00051851 | 0.00051851 | 0.00051851 |   0.0 |  2.24
Output  | 0          | 0          | 0          |   0.0 |  0.00
Modify  | 0          | 0          | 0          |   0.0 |  0.00
Other   |            | 0.0003962  |            |       |  1.71

Nlocal:            366 ave         366 max         366 min
Histogram: 1 0 0 0 0 0 0 0 0 0
Nghost:           2318 ave        2318 max        2318 min
Histogram: 1 0 0 0 0 0 0 0 0 0
Neighs:          24386 ave       24386 max       24386 min
Histogram: 1 0 0 0 0 0 0 0 0 0

Total # of neighbors = 24386
Ave neighs/atom = 66.628415
Ave special neighs/atom = 6.557377
Neighbor list builds = 0
Dangerous builds = 0

# Obtain new stress tensor

variable tmp equal pe
variable e1 equal ${tmp}
variable e1 equal 492.573055172074
variable tmp equal press
variable p1 equal ${tmp}
variable p1 equal -14837.1509170459
variable tmp equal pxx
variable pxx1 equal ${tmp}
variable pxx1 equal -7276.90240927184
variable tmp equal pyy
variable pyy1 equal ${tmp}
variable pyy1 equal -25021.1963674481
variable tmp equal pzz
variable pzz1 equal ${tmp}
variable pzz1 equal -12213.3539744177
variable tmp equal pxy
variable pxy1 equal ${tmp}
variable pxy1 equal 165.817736350111
variable tmp equal pxz
variable pxz1 equal ${tmp}
variable pxz1 equal 6093.55244466986
variable tmp equal pyz
variable pyz1 equal ${tmp}
variable pyz1 equal 3715.78889599172

# Compute elastic constant from pressure tensor

variable C1pos equal ${d1}
variable C1pos equal 53.8553441974788
variable C2pos equal ${d2}
variable C2pos equal 141.996278299345
variable C3pos equal ${d3}
variable C3pos equal 78.5168875322877
variable C4pos equal ${d4}
variable C4pos equal -6.8047756281684
variable C5pos equal ${d5}
variable C5pos equal 2.2921124685617
variable C6pos equal ${d6}
variable C6pos equal -3.92240085970741

# Combine positive and negative

variable C1${dir} equal 0.5*(${C1neg}+${C1pos})
variable C12 equal 0.5*(${C1neg}+${C1pos})
variable C12 equal 0.5*(44.846780888699+${C1pos})
variable C12 equal 0.5*(44.846780888699+53.8553441974788)
variable C2${dir} equal 0.5*(${C2neg}+${C2pos})
variable C22 equal 0.5*(${C2neg}+${C2pos})
variable C22 equal 0.5*(140.235135345143+${C2pos})
variable C22 equal 0.5*(140.235135345143+141.996278299345)
variable C3${dir} equal 0.5*(${C3neg}+${C3pos})
variable C32 equal 0.5*(${C3neg}+${C3pos})
variable C32 equal 0.5*(11.421828771945+${C3pos})
variable C32 equal 0.5*(11.421828771945+78.5168875322877)
variable C4${dir} equal 0.5*(${C4neg}+${C4pos})
variable C42 equal 0.5*(${C4neg}+${C4pos})
variable C42 equal 0.5*(0.8824972245925+${C4pos})
variable C42 equal 0.5*(0.8824972245925+-6.8047756281684)
variable C5${dir} equal 0.5*(${C5neg}+${C5pos})
variable C52 equal 0.5*(${C5neg}+${C5pos})
variable C52 equal 0.5*(0.00664673957150171+${C5pos})
variable C52 equal 0.5*(0.00664673957150171+2.2921124685617)
variable C6${dir} equal 0.5*(${C6neg}+${C6pos})
variable C62 equal 0.5*(${C6neg}+${C6pos})
variable C62 equal 0.5*(-2.01890757109064+${C6pos})
variable C62 equal 0.5*(-2.01890757109064+-3.92240085970741)

# Delete dir to make sure it is not reused

variable dir delete

# uzz Perturbation

variable dir equal 3
include ./input/displace_333-HD-100C-14-VASP.mod
if "${dir} == 1" then    "variable len0 equal ${lx0}"
if "${dir} == 2" then    "variable len0 equal ${ly0}"
if "${dir} == 3" then    "variable len0 equal ${lz0}"
variable len0 equal ${lz0}
variable len0 equal 17.3137548641745
if "${dir} == 4" then    "variable len0 equal ${lz0}"
if "${dir} == 5" then    "variable len0 equal ${lz0}"
if "${dir} == 6" then    "variable len0 equal ${ly0}"

# Reset box and simulation parameters

clear
OMP_NUM_THREADS environment is not set. Defaulting to 1 thread.
  using 1 OpenMP thread(s) per MPI task
box tilt large

The 'box' command has been removed and will be ignored

read_restart restart_333-HD-100C-14-VASP.equil
Reading restart file ...
  restart file = 10 Sep 2025, LAMMPS = 10 Sep 2025
  restoring atom style full from restart
  triclinic box = (-0.056255179 -0.037331427 -0.033645932) to (15.602462 13.503284 17.280109) with tilt (-7.6260158 0.17849775 0.43883257)
WARNING: Triclinic box skew is large. LAMMPS will run inefficiently. (src/domain.cpp:221)
  1 by 1 by 1 MPI processor grid
  restoring pair style lj/cut from restart
  restoring bond style harmonic from restart
  restoring angle style hybrid from restart
  restoring dihedral style harmonic from restart
  366 atoms
  408 bonds
  792 angles
  1080 dihedrals
Finding 1-2 1-3 1-4 neighbors ...
  special bond factors lj:    0        0        1       
  special bond factors coul:  0        0        1       
     4 = max # of 1-2 neighbors
    10 = max # of 1-3 neighbors
    14 = max # of special neighbors
  special bonds CPU = 0.000 seconds
  read_restart CPU = 0.001 seconds
include ./input/angles_333-HD-100C-14-VASP.mod
angle_style hybrid fourier cosine/periodic
angle_coeff 1 fourier 157.882480        0.343737        0.374972        0.281246
angle_coeff 2 fourier 221.735285        0.343737        0.374972        0.281246
angle_coeff 3 fourier 114.246973        0.343737        0.374972        0.281246
angle_coeff 4 fourier 90.420412        0.343737        0.374972        0.281246
angle_coeff 5 fourier 75.498766        0.343737        0.374972        0.281246
angle_coeff 6 cosine/periodic 88.853997              -1               3

# Negative deformation

variable delta equal -${up}*${len0}
variable delta equal -0.02*${len0}
variable delta equal -0.02*17.3137548641745
variable deltaxy equal -${up}*xy
variable deltaxy equal -0.02*xy
variable deltaxz equal -${up}*xz
variable deltaxz equal -0.02*xz
variable deltayz equal -${up}*yz
variable deltayz equal -0.02*yz
if "${dir} == 1" then    "change_box all x delta 0 ${delta} xy delta ${deltaxy} xz delta ${deltaxz} remap units box"
if "${dir} == 2" then    "change_box all y delta 0 ${delta} yz delta ${deltayz} remap units box"
if "${dir} == 3" then    "change_box all z delta 0 ${delta} remap units box"
change_box all z delta 0 ${delta} remap units box
change_box all z delta 0 -0.34627509728349 remap units box
Changing box ...
WARNING: Triclinic box skew is large. LAMMPS will run inefficiently. (src/domain.cpp:221)
  triclinic box = (-0.056255179 -0.037331427 -0.033645932) to (15.602462 13.503284 16.933834) with tilt (-7.6260158 0.17849775 0.43883257)
if "${dir} == 4" then    "change_box all yz delta ${delta} remap units box"
if "${dir} == 5" then    "change_box all xz delta ${delta} remap units box"
if "${dir} == 6" then    "change_box all xy delta ${delta} remap units box"

# Relax atoms positions

minimize ${etol} ${ftol} ${maxiter} ${maxeval}
minimize 0 ${ftol} ${maxiter} ${maxeval}
minimize 0 1e-10 ${maxiter} ${maxeval}
minimize 0 1e-10 100000 ${maxeval}
minimize 0 1e-10 100000 100000
Generated 6 of 6 mixed pair_coeff terms from arithmetic mixing rule
Neighbor list info ...
  update: every = 1 steps, delay = 0 steps, check = yes
  max neighbors/atom: 2000, page size: 100000
  master list distance cutoff = 7
  ghost atom cutoff = 7
  binsize = 3.5, bins = 7 4 5
  1 neighbor lists, perpetual/occasional/extra = 1 0 0
  (1) pair lj/cut, perpetual
      attributes: half, newton on
      pair build: half/bin/newton/tri
      stencil: half/bin/3d/tri
      bin: standard
WARNING: Inconsistent image flags
For more information see https://docs.lammps.org/err0027 (src/domain.cpp:1052)
Per MPI rank memory allocation (min/avg/max) = 19.53 | 19.53 | 19.53 Mbytes
   Step          Temp          E_pair         E_mol          TotEng         Press     
    250291   285.89117     -390.55413      983.75883      904.25306      37177.203    
    250329   285.89117     -408.53185      891.67504      794.19154      16213.419    
Loop time of 0.0278344 on 1 procs for 38 steps with 366 atoms

100.0% CPU use with 1 MPI tasks x 1 OpenMP threads

Minimization stats:
  Stopping criterion = linesearch alpha is zero
  Energy initial, next-to-last, final = 
      593.204701614262   483.143185405737   483.143185405737
  Force two-norm initial, final = 227.19537 10.020328
  Force max component initial, final = 23.286661 1.3937192
  Final line search alpha, max atom move = 1.1142078e-10 1.5528928e-10
  Iterations, force evaluations = 38 129

MPI task timing breakdown:
Section |  min time  |  avg time  |  max time  |%varavg| %total
---------------------------------------------------------------
Pair    | 0.021314   | 0.021314   | 0.021314   |   0.0 | 76.57
Bond    | 0.0054523  | 0.0054523  | 0.0054523  |   0.0 | 19.59
Neigh   | 0          | 0          | 0          |   0.0 |  0.00
Comm    | 0.00061558 | 0.00061558 | 0.00061558 |   0.0 |  2.21
Output  | 0          | 0          | 0          |   0.0 |  0.00
Modify  | 0          | 0          | 0          |   0.0 |  0.00
Other   |            | 0.0004525  |            |       |  1.63

Nlocal:            366 ave         366 max         366 min
Histogram: 1 0 0 0 0 0 0 0 0 0
Nghost:           2392 ave        2392 max        2392 min
Histogram: 1 0 0 0 0 0 0 0 0 0
Neighs:          25458 ave       25458 max       25458 min
Histogram: 1 0 0 0 0 0 0 0 0 0

Total # of neighbors = 25458
Ave neighs/atom = 69.557377
Ave special neighs/atom = 6.557377
Neighbor list builds = 0
Dangerous builds = 0

# Obtain new stress tensor

variable tmp equal pxx
variable pxx1 equal ${tmp}
variable pxx1 equal 13095.5274662273
variable tmp equal pyy
variable pyy1 equal ${tmp}
variable pyy1 equal 10767.4533541462
variable tmp equal pzz
variable pzz1 equal ${tmp}
variable pzz1 equal 24777.2773247118
variable tmp equal pxy
variable pxy1 equal ${tmp}
variable pxy1 equal -1321.74213717204
variable tmp equal pxz
variable pxz1 equal ${tmp}
variable pxz1 equal 5404.80957836595
variable tmp equal pyz
variable pyz1 equal ${tmp}
variable pyz1 equal 2501.99334473227

# Compute elastic constant from pressure tensor

variable C1neg equal ${d1}
variable C1neg equal 48.006805180017
variable C2neg equal ${d2}
variable C2neg equal 36.9469703086265
variable C3neg equal ${d3}
variable C3neg equal 106.43626896336
variable C4neg equal ${d4}
variable C4neg equal 0.73579787187115
variable C5neg equal ${d5}
variable C5neg equal -5.73582680008125
variable C6neg equal ${d6}
variable C6neg equal -3.51539850790334

# Reset box and simulation parameters

clear
OMP_NUM_THREADS environment is not set. Defaulting to 1 thread.
  using 1 OpenMP thread(s) per MPI task
box tilt large

The 'box' command has been removed and will be ignored

read_restart restart_333-HD-100C-14-VASP.equil
Reading restart file ...
  restart file = 10 Sep 2025, LAMMPS = 10 Sep 2025
  restoring atom style full from restart
  triclinic box = (-0.056255179 -0.037331427 -0.033645932) to (15.602462 13.503284 17.280109) with tilt (-7.6260158 0.17849775 0.43883257)
WARNING: Triclinic box skew is large. LAMMPS will run inefficiently. (src/domain.cpp:221)
  1 by 1 by 1 MPI processor grid
  restoring pair style lj/cut from restart
  restoring bond style harmonic from restart
  restoring angle style hybrid from restart
  restoring dihedral style harmonic from restart
  366 atoms
  408 bonds
  792 angles
  1080 dihedrals
Finding 1-2 1-3 1-4 neighbors ...
  special bond factors lj:    0        0        1       
  special bond factors coul:  0        0        1       
     4 = max # of 1-2 neighbors
    10 = max # of 1-3 neighbors
    14 = max # of special neighbors
  special bonds CPU = 0.000 seconds
  read_restart CPU = 0.001 seconds
include ./input/angles_333-HD-100C-14-VASP.mod
angle_style hybrid fourier cosine/periodic
angle_coeff 1 fourier 157.882480        0.343737        0.374972        0.281246
angle_coeff 2 fourier 221.735285        0.343737        0.374972        0.281246
angle_coeff 3 fourier 114.246973        0.343737        0.374972        0.281246
angle_coeff 4 fourier 90.420412        0.343737        0.374972        0.281246
angle_coeff 5 fourier 75.498766        0.343737        0.374972        0.281246
angle_coeff 6 cosine/periodic 88.853997              -1               3

# Positive deformation

variable delta equal ${up}*${len0}
variable delta equal 0.02*${len0}
variable delta equal 0.02*17.3137548641745
variable deltaxy equal ${up}*xy
variable deltaxy equal 0.02*xy
variable deltaxz equal ${up}*xz
variable deltaxz equal 0.02*xz
variable deltayz equal ${up}*yz
variable deltayz equal 0.02*yz
if "${dir} == 1" then    "change_box all x delta 0 ${delta} xy delta ${deltaxy} xz delta ${deltaxz} remap units box"
if "${dir} == 2" then    "change_box all y delta 0 ${delta} yz delta ${deltayz} remap units box"
if "${dir} == 3" then    "change_box all z delta 0 ${delta} remap units box"
change_box all z delta 0 ${delta} remap units box
change_box all z delta 0 0.34627509728349 remap units box
Changing box ...
WARNING: Triclinic box skew is large. LAMMPS will run inefficiently. (src/domain.cpp:221)
  triclinic box = (-0.056255179 -0.037331427 -0.033645932) to (15.602462 13.503284 17.626384) with tilt (-7.6260158 0.17849775 0.43883257)
if "${dir} == 4" then    "change_box all yz delta ${delta} remap units box"
if "${dir} == 5" then    "change_box all xz delta ${delta} remap units box"
if "${dir} == 6" then    "change_box all xy delta ${delta} remap units box"

# Relax atoms positions

minimize ${etol} ${ftol} ${maxiter} ${maxeval}
minimize 0 ${ftol} ${maxiter} ${maxeval}
minimize 0 1e-10 ${maxiter} ${maxeval}
minimize 0 1e-10 100000 ${maxeval}
minimize 0 1e-10 100000 100000
Generated 6 of 6 mixed pair_coeff terms from arithmetic mixing rule
Neighbor list info ...
  update: every = 1 steps, delay = 0 steps, check = yes
  max neighbors/atom: 2000, page size: 100000
  master list distance cutoff = 7
  ghost atom cutoff = 7
  binsize = 3.5, bins = 7 4 6
  1 neighbor lists, perpetual/occasional/extra = 1 0 0
  (1) pair lj/cut, perpetual
      attributes: half, newton on
      pair build: half/bin/newton/tri
      stencil: half/bin/3d/tri
      bin: standard
WARNING: Inconsistent image flags
For more information see https://docs.lammps.org/err0027 (src/domain.cpp:1052)
Per MPI rank memory allocation (min/avg/max) = 19.52 | 19.52 | 19.52 Mbytes
   Step          Temp          E_pair         E_mol          TotEng         Press     
    250291   285.89117     -455.82722      1047.2382      902.4593      -28937.239    
    250311   285.89117     -477.09017      978.30158      812.25976     -15196.001    
Loop time of 0.0201389 on 1 procs for 20 steps with 366 atoms

100.0% CPU use with 1 MPI tasks x 1 OpenMP threads

Minimization stats:
  Stopping criterion = linesearch alpha is zero
  Energy initial, next-to-last, final = 
       591.41094426031   501.211405741128   501.211405741128
  Force two-norm initial, final = 220.65542 22.848578
  Force max component initial, final = 21.655624 3.4632503
  Final line search alpha, max atom move = 1.7976424e-11 6.2256857e-11
  Iterations, force evaluations = 20 97

MPI task timing breakdown:
Section |  min time  |  avg time  |  max time  |%varavg| %total
---------------------------------------------------------------
Pair    | 0.015341   | 0.015341   | 0.015341   |   0.0 | 76.18
Bond    | 0.0040434  | 0.0040434  | 0.0040434  |   0.0 | 20.08
Neigh   | 0          | 0          | 0          |   0.0 |  0.00
Comm    | 0.00044847 | 0.00044847 | 0.00044847 |   0.0 |  2.23
Output  | 0          | 0          | 0          |   0.0 |  0.00
Modify  | 0          | 0          | 0          |   0.0 |  0.00
Other   |            | 0.0003057  |            |       |  1.52

Nlocal:            366 ave         366 max         366 min
Histogram: 1 0 0 0 0 0 0 0 0 0
Nghost:           2318 ave        2318 max        2318 min
Histogram: 1 0 0 0 0 0 0 0 0 0
Neighs:          24372 ave       24372 max       24372 min
Histogram: 1 0 0 0 0 0 0 0 0 0

Total # of neighbors = 24372
Ave neighs/atom = 66.590164
Ave special neighs/atom = 6.557377
Neighbor list builds = 0
Dangerous builds = 0

# Obtain new stress tensor

variable tmp equal pe
variable e1 equal ${tmp}
variable e1 equal 501.211405741128
variable tmp equal press
variable p1 equal ${tmp}
variable p1 equal -15196.001179686
variable tmp equal pxx
variable pxx1 equal ${tmp}
variable pxx1 equal -7426.16306937824
variable tmp equal pyy
variable pyy1 equal ${tmp}
variable pyy1 equal -6596.67941401392
variable tmp equal pzz
variable pzz1 equal ${tmp}
variable pzz1 equal -31565.1610556658
variable tmp equal pxy
variable pxy1 equal ${tmp}
variable pxy1 equal -360.163125236398
variable tmp equal pxz
variable pxz1 equal ${tmp}
variable pxz1 equal 6137.91996733881
variable tmp equal pyz
variable pyz1 equal ${tmp}
variable pyz1 equal 3245.80718316905

# Compute elastic constant from pressure tensor

variable C1pos equal ${d1}
variable C1pos equal 54.6016474980108
variable C2pos equal ${d2}
variable C2pos equal 49.873693532174
variable C3pos equal ${d3}
variable C3pos equal 175.275922938528
variable C4pos equal ${d4}
variable C4pos equal -4.45486706405505
variable C5pos equal ${d5}
variable C5pos equal 2.07027485521695
variable C6pos equal ${d6}
variable C6pos equal -1.29249655177487

# Combine positive and negative

variable C1${dir} equal 0.5*(${C1neg}+${C1pos})
variable C13 equal 0.5*(${C1neg}+${C1pos})
variable C13 equal 0.5*(48.006805180017+${C1pos})
variable C13 equal 0.5*(48.006805180017+54.6016474980108)
variable C2${dir} equal 0.5*(${C2neg}+${C2pos})
variable C23 equal 0.5*(${C2neg}+${C2pos})
variable C23 equal 0.5*(36.9469703086265+${C2pos})
variable C23 equal 0.5*(36.9469703086265+49.873693532174)
variable C3${dir} equal 0.5*(${C3neg}+${C3pos})
variable C33 equal 0.5*(${C3neg}+${C3pos})
variable C33 equal 0.5*(106.43626896336+${C3pos})
variable C33 equal 0.5*(106.43626896336+175.275922938528)
variable C4${dir} equal 0.5*(${C4neg}+${C4pos})
variable C43 equal 0.5*(${C4neg}+${C4pos})
variable C43 equal 0.5*(0.73579787187115+${C4pos})
variable C43 equal 0.5*(0.73579787187115+-4.45486706405505)
variable C5${dir} equal 0.5*(${C5neg}+${C5pos})
variable C53 equal 0.5*(${C5neg}+${C5pos})
variable C53 equal 0.5*(-5.73582680008125+${C5pos})
variable C53 equal 0.5*(-5.73582680008125+2.07027485521695)
variable C6${dir} equal 0.5*(${C6neg}+${C6pos})
variable C63 equal 0.5*(${C6neg}+${C6pos})
variable C63 equal 0.5*(-3.51539850790334+${C6pos})
variable C63 equal 0.5*(-3.51539850790334+-1.29249655177487)

# Delete dir to make sure it is not reused

variable dir delete

# uyz Perturbation

variable dir equal 4
include ./input/displace_333-HD-100C-14-VASP.mod
if "${dir} == 1" then    "variable len0 equal ${lx0}"
if "${dir} == 2" then    "variable len0 equal ${ly0}"
if "${dir} == 3" then    "variable len0 equal ${lz0}"
if "${dir} == 4" then    "variable len0 equal ${lz0}"
variable len0 equal ${lz0}
variable len0 equal 17.3137548641745
if "${dir} == 5" then    "variable len0 equal ${lz0}"
if "${dir} == 6" then    "variable len0 equal ${ly0}"

# Reset box and simulation parameters

clear
OMP_NUM_THREADS environment is not set. Defaulting to 1 thread.
  using 1 OpenMP thread(s) per MPI task
box tilt large

The 'box' command has been removed and will be ignored

read_restart restart_333-HD-100C-14-VASP.equil
Reading restart file ...
  restart file = 10 Sep 2025, LAMMPS = 10 Sep 2025
  restoring atom style full from restart
  triclinic box = (-0.056255179 -0.037331427 -0.033645932) to (15.602462 13.503284 17.280109) with tilt (-7.6260158 0.17849775 0.43883257)
WARNING: Triclinic box skew is large. LAMMPS will run inefficiently. (src/domain.cpp:221)
  1 by 1 by 1 MPI processor grid
  restoring pair style lj/cut from restart
  restoring bond style harmonic from restart
  restoring angle style hybrid from restart
  restoring dihedral style harmonic from restart
  366 atoms
  408 bonds
  792 angles
  1080 dihedrals
Finding 1-2 1-3 1-4 neighbors ...
  special bond factors lj:    0        0        1       
  special bond factors coul:  0        0        1       
     4 = max # of 1-2 neighbors
    10 = max # of 1-3 neighbors
    14 = max # of special neighbors
  special bonds CPU = 0.000 seconds
  read_restart CPU = 0.001 seconds
include ./input/angles_333-HD-100C-14-VASP.mod
angle_style hybrid fourier cosine/periodic
angle_coeff 1 fourier 157.882480        0.343737        0.374972        0.281246
angle_coeff 2 fourier 221.735285        0.343737        0.374972        0.281246
angle_coeff 3 fourier 114.246973        0.343737        0.374972        0.281246
angle_coeff 4 fourier 90.420412        0.343737        0.374972        0.281246
angle_coeff 5 fourier 75.498766        0.343737        0.374972        0.281246
angle_coeff 6 cosine/periodic 88.853997              -1               3

# Negative deformation

variable delta equal -${up}*${len0}
variable delta equal -0.02*${len0}
variable delta equal -0.02*17.3137548641745
variable deltaxy equal -${up}*xy
variable deltaxy equal -0.02*xy
variable deltaxz equal -${up}*xz
variable deltaxz equal -0.02*xz
variable deltayz equal -${up}*yz
variable deltayz equal -0.02*yz
if "${dir} == 1" then    "change_box all x delta 0 ${delta} xy delta ${deltaxy} xz delta ${deltaxz} remap units box"
if "${dir} == 2" then    "change_box all y delta 0 ${delta} yz delta ${deltayz} remap units box"
if "${dir} == 3" then    "change_box all z delta 0 ${delta} remap units box"
if "${dir} == 4" then    "change_box all yz delta ${delta} remap units box"
change_box all yz delta ${delta} remap units box
change_box all yz delta -0.34627509728349 remap units box
Changing box ...
WARNING: Triclinic box skew is large. LAMMPS will run inefficiently. (src/domain.cpp:221)
  triclinic box = (-0.056255179 -0.037331427 -0.033645932) to (15.602462 13.503284 17.280109) with tilt (-7.6260158 0.17849775 0.092557475)
if "${dir} == 5" then    "change_box all xz delta ${delta} remap units box"
if "${dir} == 6" then    "change_box all xy delta ${delta} remap units box"

# Relax atoms positions

minimize ${etol} ${ftol} ${maxiter} ${maxeval}
minimize 0 ${ftol} ${maxiter} ${maxeval}
minimize 0 1e-10 ${maxiter} ${maxeval}
minimize 0 1e-10 100000 ${maxeval}
minimize 0 1e-10 100000 100000
Generated 6 of 6 mixed pair_coeff terms from arithmetic mixing rule
Neighbor list info ...
  update: every = 1 steps, delay = 0 steps, check = yes
  max neighbors/atom: 2000, page size: 100000
  master list distance cutoff = 7
  ghost atom cutoff = 7
  binsize = 3.5, bins = 7 4 5
  1 neighbor lists, perpetual/occasional/extra = 1 0 0
  (1) pair lj/cut, perpetual
      attributes: half, newton on
      pair build: half/bin/newton/tri
      stencil: half/bin/3d/tri
      bin: standard
WARNING: Inconsistent image flags
For more information see https://docs.lammps.org/err0027 (src/domain.cpp:1052)
Per MPI rank memory allocation (min/avg/max) = 19.53 | 19.53 | 19.53 Mbytes
   Step          Temp          E_pair         E_mol          TotEng         Press     
    250291   285.89117     -428.17442      1000.9081      883.78204      3223.4232    
    250319   285.89117     -447.70127      933.31045      796.65753     -415.70005    
Loop time of 0.0235393 on 1 procs for 28 steps with 366 atoms

100.0% CPU use with 1 MPI tasks x 1 OpenMP threads

Minimization stats:
  Stopping criterion = linesearch alpha is zero
  Energy initial, next-to-last, final = 
      572.733688501922   485.609177384806   485.609177384806
  Force two-norm initial, final = 185.1565 13.898769
  Force max component initial, final = 17.032716 2.1548077
  Final line search alpha, max atom move = 5.8770159e-11 1.2663839e-10
  Iterations, force evaluations = 28 111

MPI task timing breakdown:
Section |  min time  |  avg time  |  max time  |%varavg| %total
---------------------------------------------------------------
Pair    | 0.018034   | 0.018034   | 0.018034   |   0.0 | 76.61
Bond    | 0.0046298  | 0.0046298  | 0.0046298  |   0.0 | 19.67
Neigh   | 0          | 0          | 0          |   0.0 |  0.00
Comm    | 0.00049554 | 0.00049554 | 0.00049554 |   0.0 |  2.11
Output  | 0          | 0          | 0          |   0.0 |  0.00
Modify  | 0          | 0          | 0          |   0.0 |  0.00
Other   |            | 0.0003795  |            |       |  1.61

Nlocal:            366 ave         366 max         366 min
Histogram: 1 0 0 0 0 0 0 0 0 0
Nghost:           2358 ave        2358 max        2358 min
Histogram: 1 0 0 0 0 0 0 0 0 0
Neighs:          24932 ave       24932 max       24932 min
Histogram: 1 0 0 0 0 0 0 0 0 0

Total # of neighbors = 24932
Ave neighs/atom = 68.120219
Ave special neighs/atom = 6.557377
Neighbor list builds = 0
Dangerous builds = 0

# Obtain new stress tensor

variable tmp equal pxx
variable pxx1 equal ${tmp}
variable pxx1 equal 2384.59458264898
variable tmp equal pyy
variable pyy1 equal ${tmp}
variable pyy1 equal 636.987646488731
variable tmp equal pzz
variable pzz1 equal ${tmp}
variable pzz1 equal -4268.68237827239
variable tmp equal pxy
variable pxy1 equal ${tmp}
variable pxy1 equal -650.587559471805
variable tmp equal pxz
variable pxz1 equal ${tmp}
variable pxz1 equal 6355.71244422748
variable tmp equal pyz
variable pyz1 equal ${tmp}
variable pyz1 equal 12797.7572943575

# Compute elastic constant from pressure tensor

variable C1neg equal ${d1}
variable C1neg equal -5.54785923787465
variable C2neg equal ${d2}
variable C2neg equal -13.7053582296608
variable C3neg equal ${d3}
variable C3neg equal -38.7935295515611
variable C4neg equal ${d4}
variable C4neg equal 52.2146176199973
variable C5neg equal ${d5}
variable C5neg equal -0.981312470773601
variable C6neg equal ${d6}
variable C6neg equal -0.159625619402165

# Reset box and simulation parameters

clear
OMP_NUM_THREADS environment is not set. Defaulting to 1 thread.
  using 1 OpenMP thread(s) per MPI task
box tilt large

The 'box' command has been removed and will be ignored

read_restart restart_333-HD-100C-14-VASP.equil
Reading restart file ...
  restart file = 10 Sep 2025, LAMMPS = 10 Sep 2025
  restoring atom style full from restart
  triclinic box = (-0.056255179 -0.037331427 -0.033645932) to (15.602462 13.503284 17.280109) with tilt (-7.6260158 0.17849775 0.43883257)
WARNING: Triclinic box skew is large. LAMMPS will run inefficiently. (src/domain.cpp:221)
  1 by 1 by 1 MPI processor grid
  restoring pair style lj/cut from restart
  restoring bond style harmonic from restart
  restoring angle style hybrid from restart
  restoring dihedral style harmonic from restart
  366 atoms
  408 bonds
  792 angles
  1080 dihedrals
Finding 1-2 1-3 1-4 neighbors ...
  special bond factors lj:    0        0        1       
  special bond factors coul:  0        0        1       
     4 = max # of 1-2 neighbors
    10 = max # of 1-3 neighbors
    14 = max # of special neighbors
  special bonds CPU = 0.000 seconds
  read_restart CPU = 0.001 seconds
include ./input/angles_333-HD-100C-14-VASP.mod
angle_style hybrid fourier cosine/periodic
angle_coeff 1 fourier 157.882480        0.343737        0.374972        0.281246
angle_coeff 2 fourier 221.735285        0.343737        0.374972        0.281246
angle_coeff 3 fourier 114.246973        0.343737        0.374972        0.281246
angle_coeff 4 fourier 90.420412        0.343737        0.374972        0.281246
angle_coeff 5 fourier 75.498766        0.343737        0.374972        0.281246
angle_coeff 6 cosine/periodic 88.853997              -1               3

# Positive deformation

variable delta equal ${up}*${len0}
variable delta equal 0.02*${len0}
variable delta equal 0.02*17.3137548641745
variable deltaxy equal ${up}*xy
variable deltaxy equal 0.02*xy
variable deltaxz equal ${up}*xz
variable deltaxz equal 0.02*xz
variable deltayz equal ${up}*yz
variable deltayz equal 0.02*yz
if "${dir} == 1" then    "change_box all x delta 0 ${delta} xy delta ${deltaxy} xz delta ${deltaxz} remap units box"
if "${dir} == 2" then    "change_box all y delta 0 ${delta} yz delta ${deltayz} remap units box"
if "${dir} == 3" then    "change_box all z delta 0 ${delta} remap units box"
if "${dir} == 4" then    "change_box all yz delta ${delta} remap units box"
change_box all yz delta ${delta} remap units box
change_box all yz delta 0.34627509728349 remap units box
Changing box ...
WARNING: Triclinic box skew is large. LAMMPS will run inefficiently. (src/domain.cpp:221)
  triclinic box = (-0.056255179 -0.037331427 -0.033645932) to (15.602462 13.503284 17.280109) with tilt (-7.6260158 0.17849775 0.78510767)
if "${dir} == 5" then    "change_box all xz delta ${delta} remap units box"
if "${dir} == 6" then    "change_box all xy delta ${delta} remap units box"

# Relax atoms positions

minimize ${etol} ${ftol} ${maxiter} ${maxeval}
minimize 0 ${ftol} ${maxiter} ${maxeval}
minimize 0 1e-10 ${maxiter} ${maxeval}
minimize 0 1e-10 100000 ${maxeval}
minimize 0 1e-10 100000 100000
Generated 6 of 6 mixed pair_coeff terms from arithmetic mixing rule
Neighbor list info ...
  update: every = 1 steps, delay = 0 steps, check = yes
  max neighbors/atom: 2000, page size: 100000
  master list distance cutoff = 7
  ghost atom cutoff = 7
  binsize = 3.5, bins = 7 5 5
  1 neighbor lists, perpetual/occasional/extra = 1 0 0
  (1) pair lj/cut, perpetual
      attributes: half, newton on
      pair build: half/bin/newton/tri
      stencil: half/bin/3d/tri
      bin: standard
WARNING: Inconsistent image flags
For more information see https://docs.lammps.org/err0027 (src/domain.cpp:1052)
Per MPI rank memory allocation (min/avg/max) = 19.53 | 19.53 | 19.53 Mbytes
   Step          Temp          E_pair         E_mol          TotEng         Press     
    250291   285.89117     -425.75334      995.55509      880.8501       3214.7056    
    250320   285.89117     -444.86163      923.73941      789.92613      237.60235    
Loop time of 0.0245299 on 1 procs for 29 steps with 366 atoms

100.0% CPU use with 1 MPI tasks x 1 OpenMP threads

Minimization stats:
  Stopping criterion = linesearch alpha is zero
  Energy initial, next-to-last, final = 
      569.801747817426   478.877775813908   478.877775813908
  Force two-norm initial, final = 182.43045 13.665311
  Force max component initial, final = 18.476817 2.3623504
  Final line search alpha, max atom move = 4.4324769e-11 1.0471064e-10
  Iterations, force evaluations = 29 115

MPI task timing breakdown:
Section |  min time  |  avg time  |  max time  |%varavg| %total
---------------------------------------------------------------
Pair    | 0.018694   | 0.018694   | 0.018694   |   0.0 | 76.21
Bond    | 0.0048679  | 0.0048679  | 0.0048679  |   0.0 | 19.84
Neigh   | 0          | 0          | 0          |   0.0 |  0.00
Comm    | 0.00059056 | 0.00059056 | 0.00059056 |   0.0 |  2.41
Output  | 0          | 0          | 0          |   0.0 |  0.00
Modify  | 0          | 0          | 0          |   0.0 |  0.00
Other   |            | 0.0003773  |            |       |  1.54

Nlocal:            366 ave         366 max         366 min
Histogram: 1 0 0 0 0 0 0 0 0 0
Nghost:           2358 ave        2358 max        2358 min
Histogram: 1 0 0 0 0 0 0 0 0 0
Neighs:          24896 ave       24896 max       24896 min
Histogram: 1 0 0 0 0 0 0 0 0 0

Total # of neighbors = 24896
Ave neighs/atom = 68.021858
Ave special neighs/atom = 6.557377
Neighbor list builds = 0
Dangerous builds = 0

# Obtain new stress tensor

variable tmp equal pe
variable e1 equal ${tmp}
variable e1 equal 478.877775813908
variable tmp equal press
variable p1 equal ${tmp}
variable p1 equal 237.602351028763
variable tmp equal pxx
variable pxx1 equal ${tmp}
variable pxx1 equal 1821.67886022033
variable tmp equal pyy
variable pyy1 equal ${tmp}
variable pyy1 equal 2107.5456234349
variable tmp equal pzz
variable pzz1 equal ${tmp}
variable pzz1 equal -3216.41743056895
variable tmp equal pxy
variable pxy1 equal ${tmp}
variable pxy1 equal -627.286971068573
variable tmp equal pxz
variable pxz1 equal ${tmp}
variable pxz1 equal 5859.57654684307
variable tmp equal pyz
variable pyz1 equal ${tmp}
variable pyz1 equal -6517.2469327916

# Compute elastic constant from pressure tensor

variable C1pos equal ${d1}
variable C1pos equal 8.3624378500179
variable C2pos equal ${d2}
variable C2pos equal 6.35256834492995
variable C3pos equal ${d3}
variable C3pos equal 33.5322048130439
variable C4pos equal ${d4}
variable C4pos equal 44.3604035157482
variable C5pos equal ${d5}
variable C5pos equal 3.46199195769565
variable C6pos equal ${d6}
variable C6pos equal 0.0431226773860055

# Combine positive and negative

variable C1${dir} equal 0.5*(${C1neg}+${C1pos})
variable C14 equal 0.5*(${C1neg}+${C1pos})
variable C14 equal 0.5*(-5.54785923787465+${C1pos})
variable C14 equal 0.5*(-5.54785923787465+8.3624378500179)
variable C2${dir} equal 0.5*(${C2neg}+${C2pos})
variable C24 equal 0.5*(${C2neg}+${C2pos})
variable C24 equal 0.5*(-13.7053582296608+${C2pos})
variable C24 equal 0.5*(-13.7053582296608+6.35256834492995)
variable C3${dir} equal 0.5*(${C3neg}+${C3pos})
variable C34 equal 0.5*(${C3neg}+${C3pos})
variable C34 equal 0.5*(-38.7935295515611+${C3pos})
variable C34 equal 0.5*(-38.7935295515611+33.5322048130439)
variable C4${dir} equal 0.5*(${C4neg}+${C4pos})
variable C44 equal 0.5*(${C4neg}+${C4pos})
variable C44 equal 0.5*(52.2146176199973+${C4pos})
variable C44 equal 0.5*(52.2146176199973+44.3604035157482)
variable C5${dir} equal 0.5*(${C5neg}+${C5pos})
variable C54 equal 0.5*(${C5neg}+${C5pos})
variable C54 equal 0.5*(-0.981312470773601+${C5pos})
variable C54 equal 0.5*(-0.981312470773601+3.46199195769565)
variable C6${dir} equal 0.5*(${C6neg}+${C6pos})
variable C64 equal 0.5*(${C6neg}+${C6pos})
variable C64 equal 0.5*(-0.159625619402165+${C6pos})
variable C64 equal 0.5*(-0.159625619402165+0.0431226773860055)

# Delete dir to make sure it is not reused

variable dir delete

# uxz Perturbation

variable dir equal 5
include ./input/displace_333-HD-100C-14-VASP.mod
if "${dir} == 1" then    "variable len0 equal ${lx0}"
if "${dir} == 2" then    "variable len0 equal ${ly0}"
if "${dir} == 3" then    "variable len0 equal ${lz0}"
if "${dir} == 4" then    "variable len0 equal ${lz0}"
if "${dir} == 5" then    "variable len0 equal ${lz0}"
variable len0 equal ${lz0}
variable len0 equal 17.3137548641745
if "${dir} == 6" then    "variable len0 equal ${ly0}"

# Reset box and simulation parameters

clear
OMP_NUM_THREADS environment is not set. Defaulting to 1 thread.
  using 1 OpenMP thread(s) per MPI task
box tilt large

The 'box' command has been removed and will be ignored

read_restart restart_333-HD-100C-14-VASP.equil
Reading restart file ...
  restart file = 10 Sep 2025, LAMMPS = 10 Sep 2025
  restoring atom style full from restart
  triclinic box = (-0.056255179 -0.037331427 -0.033645932) to (15.602462 13.503284 17.280109) with tilt (-7.6260158 0.17849775 0.43883257)
WARNING: Triclinic box skew is large. LAMMPS will run inefficiently. (src/domain.cpp:221)
  1 by 1 by 1 MPI processor grid
  restoring pair style lj/cut from restart
  restoring bond style harmonic from restart
  restoring angle style hybrid from restart
  restoring dihedral style harmonic from restart
  366 atoms
  408 bonds
  792 angles
  1080 dihedrals
Finding 1-2 1-3 1-4 neighbors ...
  special bond factors lj:    0        0        1       
  special bond factors coul:  0        0        1       
     4 = max # of 1-2 neighbors
    10 = max # of 1-3 neighbors
    14 = max # of special neighbors
  special bonds CPU = 0.000 seconds
  read_restart CPU = 0.001 seconds
include ./input/angles_333-HD-100C-14-VASP.mod
angle_style hybrid fourier cosine/periodic
angle_coeff 1 fourier 157.882480        0.343737        0.374972        0.281246
angle_coeff 2 fourier 221.735285        0.343737        0.374972        0.281246
angle_coeff 3 fourier 114.246973        0.343737        0.374972        0.281246
angle_coeff 4 fourier 90.420412        0.343737        0.374972        0.281246
angle_coeff 5 fourier 75.498766        0.343737        0.374972        0.281246
angle_coeff 6 cosine/periodic 88.853997              -1               3

# Negative deformation

variable delta equal -${up}*${len0}
variable delta equal -0.02*${len0}
variable delta equal -0.02*17.3137548641745
variable deltaxy equal -${up}*xy
variable deltaxy equal -0.02*xy
variable deltaxz equal -${up}*xz
variable deltaxz equal -0.02*xz
variable deltayz equal -${up}*yz
variable deltayz equal -0.02*yz
if "${dir} == 1" then    "change_box all x delta 0 ${delta} xy delta ${deltaxy} xz delta ${deltaxz} remap units box"
if "${dir} == 2" then    "change_box all y delta 0 ${delta} yz delta ${deltayz} remap units box"
if "${dir} == 3" then    "change_box all z delta 0 ${delta} remap units box"
if "${dir} == 4" then    "change_box all yz delta ${delta} remap units box"
if "${dir} == 5" then    "change_box all xz delta ${delta} remap units box"
change_box all xz delta ${delta} remap units box
change_box all xz delta -0.34627509728349 remap units box
Changing box ...
WARNING: Triclinic box skew is large. LAMMPS will run inefficiently. (src/domain.cpp:221)
  triclinic box = (-0.056255179 -0.037331427 -0.033645932) to (15.602462 13.503284 17.280109) with tilt (-7.6260158 -0.16777735 0.43883257)
if "${dir} == 6" then    "change_box all xy delta ${delta} remap units box"

# Relax atoms positions

minimize ${etol} ${ftol} ${maxiter} ${maxeval}
minimize 0 ${ftol} ${maxiter} ${maxeval}
minimize 0 1e-10 ${maxiter} ${maxeval}
minimize 0 1e-10 100000 ${maxeval}
minimize 0 1e-10 100000 100000
Generated 6 of 6 mixed pair_coeff terms from arithmetic mixing rule
Neighbor list info ...
  update: every = 1 steps, delay = 0 steps, check = yes
  max neighbors/atom: 2000, page size: 100000
  master list distance cutoff = 7
  ghost atom cutoff = 7
  binsize = 3.5, bins = 7 4 5
  1 neighbor lists, perpetual/occasional/extra = 1 0 0
  (1) pair lj/cut, perpetual
      attributes: half, newton on
      pair build: half/bin/newton/tri
      stencil: half/bin/3d/tri
      bin: standard
WARNING: Inconsistent image flags
For more information see https://docs.lammps.org/err0027 (src/domain.cpp:1052)
Per MPI rank memory allocation (min/avg/max) = 19.53 | 19.53 | 19.53 Mbytes
   Step          Temp          E_pair         E_mol          TotEng         Press     
    250291   285.89117     -425.01459      1003.6155      889.64927      3425.2648    
    250329   285.89117     -446.21632      932.40822      797.24026     -180.86271    
Loop time of 0.0280792 on 1 procs for 38 steps with 366 atoms

100.0% CPU use with 1 MPI tasks x 1 OpenMP threads

Minimization stats:
  Stopping criterion = linesearch alpha is zero
  Energy initial, next-to-last, final = 
      578.600912599929   486.191905301517   486.191905301517
  Force two-norm initial, final = 183.88079 11.810582
  Force max component initial, final = 19.242116 1.4377394
  Final line search alpha, max atom move = 4.7530858e-11 6.8336989e-11
  Iterations, force evaluations = 38 131

MPI task timing breakdown:
Section |  min time  |  avg time  |  max time  |%varavg| %total
---------------------------------------------------------------
Pair    | 0.021551   | 0.021551   | 0.021551   |   0.0 | 76.75
Bond    | 0.0055019  | 0.0055019  | 0.0055019  |   0.0 | 19.59
Neigh   | 0          | 0          | 0          |   0.0 |  0.00
Comm    | 0.00059068 | 0.00059068 | 0.00059068 |   0.0 |  2.10
Output  | 0          | 0          | 0          |   0.0 |  0.00
Modify  | 0          | 0          | 0          |   0.0 |  0.00
Other   |            | 0.0004354  |            |       |  1.55

Nlocal:            366 ave         366 max         366 min
Histogram: 1 0 0 0 0 0 0 0 0 0
Nghost:           2358 ave        2358 max        2358 min
Histogram: 1 0 0 0 0 0 0 0 0 0
Neighs:          24892 ave       24892 max       24892 min
Histogram: 1 0 0 0 0 0 0 0 0 0

Total # of neighbors = 24892
Ave neighs/atom = 68.010929
Ave special neighs/atom = 6.557377
Neighbor list builds = 0
Dangerous builds = 0

# Obtain new stress tensor

variable tmp equal pxx
variable pxx1 equal ${tmp}
variable pxx1 equal 1958.37959913243
variable tmp equal pyy
variable pyy1 equal ${tmp}
variable pyy1 equal 1524.61141531868
variable tmp equal pzz
variable pzz1 equal ${tmp}
variable pzz1 equal -4025.57913345751
variable tmp equal pxy
variable pxy1 equal ${tmp}
variable pxy1 equal -1143.08859942265
variable tmp equal pxz
variable pxz1 equal ${tmp}
variable pxz1 equal 14659.934939073
variable tmp equal pyz
variable pyz1 equal ${tmp}
variable pyz1 equal 3701.85715312591

# Compute elastic constant from pressure tensor

variable C1neg equal ${d1}
variable C1neg equal -7.6789341554574
variable C2neg equal ${d2}
variable C2neg equal -9.26723938551105
variable C3neg equal ${d3}
variable C3neg equal -37.5780133274867
variable C4neg equal ${d4}
variable C4neg equal 6.73511691383935
variable C5neg equal ${d5}
variable C5neg equal 40.539800003454
variable C6neg equal ${d6}
variable C6neg equal -2.62213081915639

# Reset box and simulation parameters

clear
OMP_NUM_THREADS environment is not set. Defaulting to 1 thread.
  using 1 OpenMP thread(s) per MPI task
box tilt large

The 'box' command has been removed and will be ignored

read_restart restart_333-HD-100C-14-VASP.equil
Reading restart file ...
  restart file = 10 Sep 2025, LAMMPS = 10 Sep 2025
  restoring atom style full from restart
  triclinic box = (-0.056255179 -0.037331427 -0.033645932) to (15.602462 13.503284 17.280109) with tilt (-7.6260158 0.17849775 0.43883257)
WARNING: Triclinic box skew is large. LAMMPS will run inefficiently. (src/domain.cpp:221)
  1 by 1 by 1 MPI processor grid
  restoring pair style lj/cut from restart
  restoring bond style harmonic from restart
  restoring angle style hybrid from restart
  restoring dihedral style harmonic from restart
  366 atoms
  408 bonds
  792 angles
  1080 dihedrals
Finding 1-2 1-3 1-4 neighbors ...
  special bond factors lj:    0        0        1       
  special bond factors coul:  0        0        1       
     4 = max # of 1-2 neighbors
    10 = max # of 1-3 neighbors
    14 = max # of special neighbors
  special bonds CPU = 0.000 seconds
  read_restart CPU = 0.001 seconds
include ./input/angles_333-HD-100C-14-VASP.mod
angle_style hybrid fourier cosine/periodic
angle_coeff 1 fourier 157.882480        0.343737        0.374972        0.281246
angle_coeff 2 fourier 221.735285        0.343737        0.374972        0.281246
angle_coeff 3 fourier 114.246973        0.343737        0.374972        0.281246
angle_coeff 4 fourier 90.420412        0.343737        0.374972        0.281246
angle_coeff 5 fourier 75.498766        0.343737        0.374972        0.281246
angle_coeff 6 cosine/periodic 88.853997              -1               3

# Positive deformation

variable delta equal ${up}*${len0}
variable delta equal 0.02*${len0}
variable delta equal 0.02*17.3137548641745
variable deltaxy equal ${up}*xy
variable deltaxy equal 0.02*xy
variable deltaxz equal ${up}*xz
variable deltaxz equal 0.02*xz
variable deltayz equal ${up}*yz
variable deltayz equal 0.02*yz
if "${dir} == 1" then    "change_box all x delta 0 ${delta} xy delta ${deltaxy} xz delta ${deltaxz} remap units box"
if "${dir} == 2" then    "change_box all y delta 0 ${delta} yz delta ${deltayz} remap units box"
if "${dir} == 3" then    "change_box all z delta 0 ${delta} remap units box"
if "${dir} == 4" then    "change_box all yz delta ${delta} remap units box"
if "${dir} == 5" then    "change_box all xz delta ${delta} remap units box"
change_box all xz delta ${delta} remap units box
change_box all xz delta 0.34627509728349 remap units box
Changing box ...
WARNING: Triclinic box skew is large. LAMMPS will run inefficiently. (src/domain.cpp:221)
  triclinic box = (-0.056255179 -0.037331427 -0.033645932) to (15.602462 13.503284 17.280109) with tilt (-7.6260158 0.52477285 0.43883257)
if "${dir} == 6" then    "change_box all xy delta ${delta} remap units box"

# Relax atoms positions

minimize ${etol} ${ftol} ${maxiter} ${maxeval}
minimize 0 ${ftol} ${maxiter} ${maxeval}
minimize 0 1e-10 ${maxiter} ${maxeval}
minimize 0 1e-10 100000 ${maxeval}
minimize 0 1e-10 100000 100000
Generated 6 of 6 mixed pair_coeff terms from arithmetic mixing rule
Neighbor list info ...
  update: every = 1 steps, delay = 0 steps, check = yes
  max neighbors/atom: 2000, page size: 100000
  master list distance cutoff = 7
  ghost atom cutoff = 7
  binsize = 3.5, bins = 7 4 5
  1 neighbor lists, perpetual/occasional/extra = 1 0 0
  (1) pair lj/cut, perpetual
      attributes: half, newton on
      pair build: half/bin/newton/tri
      stencil: half/bin/3d/tri
      bin: standard
WARNING: Inconsistent image flags
For more information see https://docs.lammps.org/err0027 (src/domain.cpp:1052)
Per MPI rank memory allocation (min/avg/max) = 19.53 | 19.53 | 19.53 Mbytes
   Step          Temp          E_pair         E_mol          TotEng         Press     
    250291   285.89117     -427.50717      992.75606      876.29724      3076.3023    
    250321   285.89117     -447.94677      923.55056      786.65215     -359.16292    
Loop time of 0.0244076 on 1 procs for 30 steps with 366 atoms

100.0% CPU use with 1 MPI tasks x 1 OpenMP threads

Minimization stats:
  Stopping criterion = linesearch alpha is zero
  Energy initial, next-to-last, final = 
      565.248889855224     475.6037910602     475.6037910602
  Force two-norm initial, final = 184.77064 12.546291
  Force max component initial, final = 16.581239 1.796459
  Final line search alpha, max atom move = 7.1648128e-11 1.2871293e-10
  Iterations, force evaluations = 30 115

MPI task timing breakdown:
Section |  min time  |  avg time  |  max time  |%varavg| %total
---------------------------------------------------------------
Pair    | 0.018685   | 0.018685   | 0.018685   |   0.0 | 76.56
Bond    | 0.004791   | 0.004791   | 0.004791   |   0.0 | 19.63
Neigh   | 0          | 0          | 0          |   0.0 |  0.00
Comm    | 0.00053904 | 0.00053904 | 0.00053904 |   0.0 |  2.21
Output  | 0          | 0          | 0          |   0.0 |  0.00
Modify  | 0          | 0          | 0          |   0.0 |  0.00
Other   |            | 0.0003922  |            |       |  1.61

Nlocal:            366 ave         366 max         366 min
Histogram: 1 0 0 0 0 0 0 0 0 0
Nghost:           2358 ave        2358 max        2358 min
Histogram: 1 0 0 0 0 0 0 0 0 0
Neighs:          24913 ave       24913 max       24913 min
Histogram: 1 0 0 0 0 0 0 0 0 0

Total # of neighbors = 24913
Ave neighs/atom = 68.068306
Ave special neighs/atom = 6.557377
Neighbor list builds = 0
Dangerous builds = 0

# Obtain new stress tensor

variable tmp equal pe
variable e1 equal ${tmp}
variable e1 equal 475.6037910602
variable tmp equal press
variable p1 equal ${tmp}
variable p1 equal -359.162917822543
variable tmp equal pxx
variable pxx1 equal ${tmp}
variable pxx1 equal 1363.48468095804
variable tmp equal pyy
variable pyy1 equal ${tmp}
variable pyy1 equal 1360.8583621584
variable tmp equal pzz
variable pzz1 equal ${tmp}
variable pzz1 equal -3801.83179658407
variable tmp equal pxy
variable pxy1 equal ${tmp}
variable pxy1 equal -433.295575709862
variable tmp equal pxz
variable pxz1 equal ${tmp}
variable pxz1 equal -4004.95821871161
variable tmp equal pyz
variable pyz1 equal ${tmp}
variable pyz1 equal 2820.89159011753

# Compute elastic constant from pressure tensor

variable C1pos equal ${d1}
variable C1pos equal 10.6534087463294
variable C2pos equal ${d2}
variable C2pos equal 10.0860046513125
variable C3pos equal ${d3}
variable C3pos equal 36.4592766431195
variable C4pos equal ${d4}
variable C4pos equal -2.33028909879745
variable C5pos equal ${d5}
variable C5pos equal 52.784665785469
variable C6pos equal ${d6}
variable C6pos equal -0.92683429940755

# Combine positive and negative

variable C1${dir} equal 0.5*(${C1neg}+${C1pos})
variable C15 equal 0.5*(${C1neg}+${C1pos})
variable C15 equal 0.5*(-7.6789341554574+${C1pos})
variable C15 equal 0.5*(-7.6789341554574+10.6534087463294)
variable C2${dir} equal 0.5*(${C2neg}+${C2pos})
variable C25 equal 0.5*(${C2neg}+${C2pos})
variable C25 equal 0.5*(-9.26723938551105+${C2pos})
variable C25 equal 0.5*(-9.26723938551105+10.0860046513125)
variable C3${dir} equal 0.5*(${C3neg}+${C3pos})
variable C35 equal 0.5*(${C3neg}+${C3pos})
variable C35 equal 0.5*(-37.5780133274867+${C3pos})
variable C35 equal 0.5*(-37.5780133274867+36.4592766431195)
variable C4${dir} equal 0.5*(${C4neg}+${C4pos})
variable C45 equal 0.5*(${C4neg}+${C4pos})
variable C45 equal 0.5*(6.73511691383935+${C4pos})
variable C45 equal 0.5*(6.73511691383935+-2.33028909879745)
variable C5${dir} equal 0.5*(${C5neg}+${C5pos})
variable C55 equal 0.5*(${C5neg}+${C5pos})
variable C55 equal 0.5*(40.539800003454+${C5pos})
variable C55 equal 0.5*(40.539800003454+52.784665785469)
variable C6${dir} equal 0.5*(${C6neg}+${C6pos})
variable C65 equal 0.5*(${C6neg}+${C6pos})
variable C65 equal 0.5*(-2.62213081915639+${C6pos})
variable C65 equal 0.5*(-2.62213081915639+-0.92683429940755)

# Delete dir to make sure it is not reused

variable dir delete

# uxy Perturbation

variable dir equal 6
include ./input/displace_333-HD-100C-14-VASP.mod
if "${dir} == 1" then    "variable len0 equal ${lx0}"
if "${dir} == 2" then    "variable len0 equal ${ly0}"
if "${dir} == 3" then    "variable len0 equal ${lz0}"
if "${dir} == 4" then    "variable len0 equal ${lz0}"
if "${dir} == 5" then    "variable len0 equal ${lz0}"
if "${dir} == 6" then    "variable len0 equal ${ly0}"
variable len0 equal ${ly0}
variable len0 equal 13.5406158532753

# Reset box and simulation parameters

clear
OMP_NUM_THREADS environment is not set. Defaulting to 1 thread.
  using 1 OpenMP thread(s) per MPI task
box tilt large

The 'box' command has been removed and will be ignored

read_restart restart_333-HD-100C-14-VASP.equil
Reading restart file ...
  restart file = 10 Sep 2025, LAMMPS = 10 Sep 2025
  restoring atom style full from restart
  triclinic box = (-0.056255179 -0.037331427 -0.033645932) to (15.602462 13.503284 17.280109) with tilt (-7.6260158 0.17849775 0.43883257)
WARNING: Triclinic box skew is large. LAMMPS will run inefficiently. (src/domain.cpp:221)
  1 by 1 by 1 MPI processor grid
  restoring pair style lj/cut from restart
  restoring bond style harmonic from restart
  restoring angle style hybrid from restart
  restoring dihedral style harmonic from restart
  366 atoms
  408 bonds
  792 angles
  1080 dihedrals
Finding 1-2 1-3 1-4 neighbors ...
  special bond factors lj:    0        0        1       
  special bond factors coul:  0        0        1       
     4 = max # of 1-2 neighbors
    10 = max # of 1-3 neighbors
    14 = max # of special neighbors
  special bonds CPU = 0.000 seconds
  read_restart CPU = 0.001 seconds
include ./input/angles_333-HD-100C-14-VASP.mod
angle_style hybrid fourier cosine/periodic
angle_coeff 1 fourier 157.882480        0.343737        0.374972        0.281246
angle_coeff 2 fourier 221.735285        0.343737        0.374972        0.281246
angle_coeff 3 fourier 114.246973        0.343737        0.374972        0.281246
angle_coeff 4 fourier 90.420412        0.343737        0.374972        0.281246
angle_coeff 5 fourier 75.498766        0.343737        0.374972        0.281246
angle_coeff 6 cosine/periodic 88.853997              -1               3

# Negative deformation

variable delta equal -${up}*${len0}
variable delta equal -0.02*${len0}
variable delta equal -0.02*13.5406158532753
variable deltaxy equal -${up}*xy
variable deltaxy equal -0.02*xy
variable deltaxz equal -${up}*xz
variable deltaxz equal -0.02*xz
variable deltayz equal -${up}*yz
variable deltayz equal -0.02*yz
if "${dir} == 1" then    "change_box all x delta 0 ${delta} xy delta ${deltaxy} xz delta ${deltaxz} remap units box"
if "${dir} == 2" then    "change_box all y delta 0 ${delta} yz delta ${deltayz} remap units box"
if "${dir} == 3" then    "change_box all z delta 0 ${delta} remap units box"
if "${dir} == 4" then    "change_box all yz delta ${delta} remap units box"
if "${dir} == 5" then    "change_box all xz delta ${delta} remap units box"
if "${dir} == 6" then    "change_box all xy delta ${delta} remap units box"
change_box all xy delta ${delta} remap units box
change_box all xy delta -0.270812317065506 remap units box
Changing box ...
WARNING: Triclinic box skew is large. LAMMPS will run inefficiently. (src/domain.cpp:221)
  triclinic box = (-0.056255179 -0.037331427 -0.033645932) to (15.602462 13.503284 17.280109) with tilt (-7.8968281 0.17849775 0.43883257)

# Relax atoms positions

minimize ${etol} ${ftol} ${maxiter} ${maxeval}
minimize 0 ${ftol} ${maxiter} ${maxeval}
minimize 0 1e-10 ${maxiter} ${maxeval}
minimize 0 1e-10 100000 ${maxeval}
minimize 0 1e-10 100000 100000
Generated 6 of 6 mixed pair_coeff terms from arithmetic mixing rule
Neighbor list info ...
  update: every = 1 steps, delay = 0 steps, check = yes
  max neighbors/atom: 2000, page size: 100000
  master list distance cutoff = 7
  ghost atom cutoff = 7
  binsize = 3.5, bins = 7 4 5
  1 neighbor lists, perpetual/occasional/extra = 1 0 0
  (1) pair lj/cut, perpetual
      attributes: half, newton on
      pair build: half/bin/newton/tri
      stencil: half/bin/3d/tri
      bin: standard
WARNING: Inconsistent image flags
For more information see https://docs.lammps.org/err0027 (src/domain.cpp:1052)
Per MPI rank memory allocation (min/avg/max) = 19.53 | 19.53 | 19.53 Mbytes
   Step          Temp          E_pair         E_mol          TotEng         Press     
    250291   285.89117     -426.72111      996.95697      881.28422      2697.223     
    250311   285.89117     -445.55301      928.38915      793.8845      -447.61583    
Loop time of 0.0216421 on 1 procs for 20 steps with 366 atoms

100.0% CPU use with 1 MPI tasks x 1 OpenMP threads

Minimization stats:
  Stopping criterion = linesearch alpha is zero
  Energy initial, next-to-last, final = 
      570.235860831086   482.836148268832   482.836148268832
  Force two-norm initial, final = 186.91362 23.943144
  Force max component initial, final = 19.043027 2.8727144
  Final line search alpha, max atom move = 1.9022401e-11 5.4645925e-11
  Iterations, force evaluations = 20 97

MPI task timing breakdown:
Section |  min time  |  avg time  |  max time  |%varavg| %total
---------------------------------------------------------------
Pair    | 0.016551   | 0.016551   | 0.016551   |   0.0 | 76.47
Bond    | 0.0042764  | 0.0042764  | 0.0042764  |   0.0 | 19.76
Neigh   | 0          | 0          | 0          |   0.0 |  0.00
Comm    | 0.00048535 | 0.00048535 | 0.00048535 |   0.0 |  2.24
Output  | 0          | 0          | 0          |   0.0 |  0.00
Modify  | 0          | 0          | 0          |   0.0 |  0.00
Other   |            | 0.0003297  |            |       |  1.52

Nlocal:            366 ave         366 max         366 min
Histogram: 1 0 0 0 0 0 0 0 0 0
Nghost:           2376 ave        2376 max        2376 min
Histogram: 1 0 0 0 0 0 0 0 0 0
Neighs:          24908 ave       24908 max       24908 min
Histogram: 1 0 0 0 0 0 0 0 0 0

Total # of neighbors = 24908
Ave neighs/atom = 68.054645
Ave special neighs/atom = 6.557377
Neighbor list builds = 0
Dangerous builds = 0

# Obtain new stress tensor

variable tmp equal pxx
variable pxx1 equal ${tmp}
variable pxx1 equal 1179.98333450326
variable tmp equal pyy
variable pyy1 equal ${tmp}
variable pyy1 equal 1603.78629461923
variable tmp equal pzz
variable pzz1 equal ${tmp}
variable pzz1 equal -4126.6171319687
variable tmp equal pxy
variable pxy1 equal ${tmp}
variable pxy1 equal 8809.91757598719
variable tmp equal pxz
variable pxz1 equal ${tmp}
variable pxz1 equal 6335.33693522398
variable tmp equal pyz
variable pyz1 equal ${tmp}
variable pyz1 equal 2667.42914442199

# Compute elastic constant from pressure tensor

variable C1neg equal ${d1}
variable C1neg equal -11.5709154786033
variable C2neg equal ${d2}
variable C2neg equal -8.8713649890083
variable C3neg equal ${d3}
variable C3neg equal -38.0832033200426
variable C4neg equal ${d4}
variable C4neg equal 1.56297687031975
variable C5neg equal ${d5}
variable C5neg equal -1.0831900157911
variable C6neg equal ${d6}
variable C6neg equal 47.1429000578928

# Reset box and simulation parameters

clear
OMP_NUM_THREADS environment is not set. Defaulting to 1 thread.
  using 1 OpenMP thread(s) per MPI task
box tilt large

The 'box' command has been removed and will be ignored

read_restart restart_333-HD-100C-14-VASP.equil
Reading restart file ...
  restart file = 10 Sep 2025, LAMMPS = 10 Sep 2025
  restoring atom style full from restart
  triclinic box = (-0.056255179 -0.037331427 -0.033645932) to (15.602462 13.503284 17.280109) with tilt (-7.6260158 0.17849775 0.43883257)
WARNING: Triclinic box skew is large. LAMMPS will run inefficiently. (src/domain.cpp:221)
  1 by 1 by 1 MPI processor grid
  restoring pair style lj/cut from restart
  restoring bond style harmonic from restart
  restoring angle style hybrid from restart
  restoring dihedral style harmonic from restart
  366 atoms
  408 bonds
  792 angles
  1080 dihedrals
Finding 1-2 1-3 1-4 neighbors ...
  special bond factors lj:    0        0        1       
  special bond factors coul:  0        0        1       
     4 = max # of 1-2 neighbors
    10 = max # of 1-3 neighbors
    14 = max # of special neighbors
  special bonds CPU = 0.000 seconds
  read_restart CPU = 0.001 seconds
include ./input/angles_333-HD-100C-14-VASP.mod
angle_style hybrid fourier cosine/periodic
angle_coeff 1 fourier 157.882480        0.343737        0.374972        0.281246
angle_coeff 2 fourier 221.735285        0.343737        0.374972        0.281246
angle_coeff 3 fourier 114.246973        0.343737        0.374972        0.281246
angle_coeff 4 fourier 90.420412        0.343737        0.374972        0.281246
angle_coeff 5 fourier 75.498766        0.343737        0.374972        0.281246
angle_coeff 6 cosine/periodic 88.853997              -1               3

# Positive deformation

variable delta equal ${up}*${len0}
variable delta equal 0.02*${len0}
variable delta equal 0.02*13.5406158532753
variable deltaxy equal ${up}*xy
variable deltaxy equal 0.02*xy
variable deltaxz equal ${up}*xz
variable deltaxz equal 0.02*xz
variable deltayz equal ${up}*yz
variable deltayz equal 0.02*yz
if "${dir} == 1" then    "change_box all x delta 0 ${delta} xy delta ${deltaxy} xz delta ${deltaxz} remap units box"
if "${dir} == 2" then    "change_box all y delta 0 ${delta} yz delta ${deltayz} remap units box"
if "${dir} == 3" then    "change_box all z delta 0 ${delta} remap units box"
if "${dir} == 4" then    "change_box all yz delta ${delta} remap units box"
if "${dir} == 5" then    "change_box all xz delta ${delta} remap units box"
if "${dir} == 6" then    "change_box all xy delta ${delta} remap units box"
change_box all xy delta ${delta} remap units box
change_box all xy delta 0.270812317065506 remap units box
Changing box ...
WARNING: Triclinic box skew is large. LAMMPS will run inefficiently. (src/domain.cpp:221)
  triclinic box = (-0.056255179 -0.037331427 -0.033645932) to (15.602462 13.503284 17.280109) with tilt (-7.3552035 0.17849775 0.43883257)

# Relax atoms positions

minimize ${etol} ${ftol} ${maxiter} ${maxeval}
minimize 0 ${ftol} ${maxiter} ${maxeval}
minimize 0 1e-10 ${maxiter} ${maxeval}
minimize 0 1e-10 100000 ${maxeval}
minimize 0 1e-10 100000 100000
Generated 6 of 6 mixed pair_coeff terms from arithmetic mixing rule
Neighbor list info ...
  update: every = 1 steps, delay = 0 steps, check = yes
  max neighbors/atom: 2000, page size: 100000
  master list distance cutoff = 7
  ghost atom cutoff = 7
  binsize = 3.5, bins = 7 4 5
  1 neighbor lists, perpetual/occasional/extra = 1 0 0
  (1) pair lj/cut, perpetual
      attributes: half, newton on
      pair build: half/bin/newton/tri
      stencil: half/bin/3d/tri
      bin: standard
WARNING: Inconsistent image flags
For more information see https://docs.lammps.org/err0027 (src/domain.cpp:1052)
Per MPI rank memory allocation (min/avg/max) = 19.52 | 19.52 | 19.52 Mbytes
   Step          Temp          E_pair         E_mol          TotEng         Press     
    250291   285.89117     -425.29208      997.32194      883.07821      3828.2159    
    250322   285.89117     -446.61551      928.47911      792.91195      271.36519    
Loop time of 0.0248587 on 1 procs for 31 steps with 366 atoms

100.0% CPU use with 1 MPI tasks x 1 OpenMP threads

Minimization stats:
  Stopping criterion = linesearch alpha is zero
  Energy initial, next-to-last, final = 
      572.029854885807   481.863595039404   481.863595039404
  Force two-norm initial, final = 187.82015 10.192351
  Force max component initial, final = 17.080104 1.234316
  Final line search alpha, max atom move = 9.3885942e-11 1.1588492e-10
  Iterations, force evaluations = 31 117

MPI task timing breakdown:
Section |  min time  |  avg time  |  max time  |%varavg| %total
---------------------------------------------------------------
Pair    | 0.018995   | 0.018995   | 0.018995   |   0.0 | 76.41
Bond    | 0.0049252  | 0.0049252  | 0.0049252  |   0.0 | 19.81
Neigh   | 0          | 0          | 0          |   0.0 |  0.00
Comm    | 0.00056113 | 0.00056113 | 0.00056113 |   0.0 |  2.26
Output  | 0          | 0          | 0          |   0.0 |  0.00
Modify  | 0          | 0          | 0          |   0.0 |  0.00
Other   |            | 0.000377   |            |       |  1.52

Nlocal:            366 ave         366 max         366 min
Histogram: 1 0 0 0 0 0 0 0 0 0
Nghost:           2338 ave        2338 max        2338 min
Histogram: 1 0 0 0 0 0 0 0 0 0
Neighs:          24892 ave       24892 max       24892 min
Histogram: 1 0 0 0 0 0 0 0 0 0

Total # of neighbors = 24892
Ave neighs/atom = 68.010929
Ave special neighs/atom = 6.557377
Neighbor list builds = 0
Dangerous builds = 0

# Obtain new stress tensor

variable tmp equal pe
variable e1 equal ${tmp}
variable e1 equal 481.863595039404
variable tmp equal press
variable p1 equal ${tmp}
variable p1 equal 271.365188437041
variable tmp equal pxx
variable pxx1 equal ${tmp}
variable pxx1 equal 2381.76297134499
variable tmp equal pyy
variable pyy1 equal ${tmp}
variable pyy1 equal 2256.9391566618
variable tmp equal pzz
variable pzz1 equal ${tmp}
variable pzz1 equal -3824.60656269567
variable tmp equal pxy
variable pxy1 equal ${tmp}
variable pxy1 equal -8985.92036639715
variable tmp equal pxz
variable pxz1 equal ${tmp}
variable pxz1 equal 6471.12490216255
variable tmp equal pyz
variable pyz1 equal ${tmp}
variable pyz1 equal 3103.81809171493

# Compute elastic constant from pressure tensor

variable C1pos equal ${d1}
variable C1pos equal 5.5620172943946
variable C2pos equal ${d2}
variable C2pos equal 5.60560067879545
variable C3pos equal ${d3}
variable C3pos equal 36.5731504736775
variable C4pos equal ${d4}
variable C4pos equal -3.74492160678445
variable C5pos equal ${d5}
variable C5pos equal 0.40425018109825
variable C6pos equal ${d6}
variable C6pos equal 41.8362896540289

# Combine positive and negative

variable C1${dir} equal 0.5*(${C1neg}+${C1pos})
variable C16 equal 0.5*(${C1neg}+${C1pos})
variable C16 equal 0.5*(-11.5709154786033+${C1pos})
variable C16 equal 0.5*(-11.5709154786033+5.5620172943946)
variable C2${dir} equal 0.5*(${C2neg}+${C2pos})
variable C26 equal 0.5*(${C2neg}+${C2pos})
variable C26 equal 0.5*(-8.8713649890083+${C2pos})
variable C26 equal 0.5*(-8.8713649890083+5.60560067879545)
variable C3${dir} equal 0.5*(${C3neg}+${C3pos})
variable C36 equal 0.5*(${C3neg}+${C3pos})
variable C36 equal 0.5*(-38.0832033200426+${C3pos})
variable C36 equal 0.5*(-38.0832033200426+36.5731504736775)
variable C4${dir} equal 0.5*(${C4neg}+${C4pos})
variable C46 equal 0.5*(${C4neg}+${C4pos})
variable C46 equal 0.5*(1.56297687031975+${C4pos})
variable C46 equal 0.5*(1.56297687031975+-3.74492160678445)
variable C5${dir} equal 0.5*(${C5neg}+${C5pos})
variable C56 equal 0.5*(${C5neg}+${C5pos})
variable C56 equal 0.5*(-1.0831900157911+${C5pos})
variable C56 equal 0.5*(-1.0831900157911+0.40425018109825)
variable C6${dir} equal 0.5*(${C6neg}+${C6pos})
variable C66 equal 0.5*(${C6neg}+${C6pos})
variable C66 equal 0.5*(47.1429000578928+${C6pos})
variable C66 equal 0.5*(47.1429000578928+41.8362896540289)

# Delete dir to make sure it is not reused

variable dir delete

# Output final values

variable C11all equal ${C11}
variable C11all equal 137.080760354624
variable C22all equal ${C22}
variable C22all equal 141.115706822244
variable C33all equal ${C33}
variable C33all equal 140.856095950944

variable C12all equal 0.5*(${C12}+${C21})
variable C12all equal 0.5*(49.3510625430889+${C21})
variable C12all equal 0.5*(49.3510625430889+49.5034537082347)
variable C13all equal 0.5*(${C13}+${C31})
variable C13all equal 0.5*(51.3042263390139+${C31})
variable C13all equal 0.5*(51.3042263390139+51.6139700385792)
variable C23all equal 0.5*(${C23}+${C32})
variable C23all equal 0.5*(43.4103319204003+${C32})
variable C23all equal 0.5*(43.4103319204003+44.9693581521163)

variable C44all equal ${C44}
variable C44all equal 48.2875105678728
variable C55all equal ${C55}
variable C55all equal 46.6622328944615
variable C66all equal ${C66}
variable C66all equal 44.4895948559609

variable C14all equal 0.5*(${C14}+${C41})
variable C14all equal 0.5*(1.40728930607162+${C41})
variable C14all equal 0.5*(1.40728930607162+0.0422931613673501)
variable C15all equal 0.5*(${C15}+${C51})
variable C15all equal 0.5*(1.487237295436+${C51})
variable C15all equal 0.5*(1.487237295436+6.55411243624105)
variable C16all equal 0.5*(${C16}+${C61})
variable C16all equal 0.5*(-3.00444909210435+${C61})
variable C16all equal 0.5*(-3.00444909210435+-1.14457072090964)

variable C24all equal 0.5*(${C24}+${C42})
variable C24all equal 0.5*(-3.67639494236542+${C42})
variable C24all equal 0.5*(-3.67639494236542+-2.96113920178795)
variable C25all equal 0.5*(${C25}+${C52})
variable C25all equal 0.5*(0.409382632900725+${C52})
variable C25all equal 0.5*(0.409382632900725+1.1493796040666)
variable C26all equal 0.5*(${C26}+${C62})
variable C26all equal 0.5*(-1.63288215510643+${C62})
variable C26all equal 0.5*(-1.63288215510643+-2.97065421539902)

variable C34all equal 0.5*(${C34}+${C43})
variable C34all equal 0.5*(-2.6306623692586+${C43})
variable C34all equal 0.5*(-2.6306623692586+-1.85953459609195)
variable C35all equal 0.5*(${C35}+${C53})
variable C35all equal 0.5*(-0.5593683421836+${C53})
variable C35all equal 0.5*(-0.5593683421836+-1.83277597243215)
variable C36all equal 0.5*(${C36}+${C63})
variable C36all equal 0.5*(-0.755026423182549+${C63})
variable C36all equal 0.5*(-0.755026423182549+-2.40394752983911)

variable C45all equal 0.5*(${C45}+${C54})
variable C45all equal 0.5*(2.20241390752095+${C54})
variable C45all equal 0.5*(2.20241390752095+1.24033974346102)
variable C46all equal 0.5*(${C46}+${C64})
variable C46all equal 0.5*(-1.09097236823235+${C64})
variable C46all equal 0.5*(-1.09097236823235+-0.0582514710080797)
variable C56all equal 0.5*(${C56}+${C65})
variable C56all equal 0.5*(-0.339469917346425+${C65})
variable C56all equal 0.5*(-0.339469917346425+-1.77448255928197)

# Average moduli for cubic crystals

variable C11cubic equal (${C11all}+${C22all}+${C33all})/3.0
variable C11cubic equal (137.080760354624+${C22all}+${C33all})/3.0
variable C11cubic equal (137.080760354624+141.115706822244+${C33all})/3.0
variable C11cubic equal (137.080760354624+141.115706822244+140.856095950944)/3.0
variable C12cubic equal (${C12all}+${C13all}+${C23all})/3.0
variable C12cubic equal (49.4272581256618+${C13all}+${C23all})/3.0
variable C12cubic equal (49.4272581256618+51.4590981887965+${C23all})/3.0
variable C12cubic equal (49.4272581256618+51.4590981887965+44.1898450362583)/3.0
variable C44cubic equal (${C44all}+${C55all}+${C66all})/3.0
variable C44cubic equal (48.2875105678728+${C55all}+${C66all})/3.0
variable C44cubic equal (48.2875105678728+46.6622328944615+${C66all})/3.0
variable C44cubic equal (48.2875105678728+46.6622328944615+44.4895948559609)/3.0

variable bulkmodulus equal (${C11cubic}+2*${C12cubic})/3.0
variable bulkmodulus equal (139.684187709271+2*${C12cubic})/3.0
variable bulkmodulus equal (139.684187709271+2*48.3587337835722)/3.0
variable shearmodulus1 equal ${C44cubic}
variable shearmodulus1 equal 46.4797794394317
variable shearmodulus2 equal (${C11cubic}-${C12cubic})/2.0
variable shearmodulus2 equal (139.684187709271-${C12cubic})/2.0
variable shearmodulus2 equal (139.684187709271-48.3587337835722)/2.0
variable poissonratio equal 1.0/(1.0+${C11cubic}/${C12cubic})
variable poissonratio equal 1.0/(1.0+139.684187709271/${C12cubic})
variable poissonratio equal 1.0/(1.0+139.684187709271/48.3587337835722)

print "Elastic Constant 1 1 = ${C11all}"
Elastic Constant 1 1 = 137.080760354624
print "Elastic Constant 2 2 = ${C22all}"
Elastic Constant 2 2 = 141.115706822244
print "Elastic Constant 3 3 = ${C33all}"
Elastic Constant 3 3 = 140.856095950944

print "Elastic Constant 1 2 = ${C12all}"
Elastic Constant 1 2 = 49.4272581256618
print "Elastic Constant 1 3 = ${C13all}"
Elastic Constant 1 3 = 51.4590981887965
print "Elastic Constant 2 3 = ${C23all}"
Elastic Constant 2 3 = 44.1898450362583

print "Elastic Constant 4 4 = ${C44all}"
Elastic Constant 4 4 = 48.2875105678728
print "Elastic Constant 5 5 = ${C55all}"
Elastic Constant 5 5 = 46.6622328944615
print "Elastic Constant 6 6 = ${C66all}"
Elastic Constant 6 6 = 44.4895948559609

print "Elastic Constant 1 4 = ${C14all}"
Elastic Constant 1 4 = 0.724791233719485
print "Elastic Constant 1 5 = ${C15all}"
Elastic Constant 1 5 = 4.02067486583852
print "Elastic Constant 1 6 = ${C16all}"
Elastic Constant 1 6 = -2.074509906507

print "Elastic Constant 2 4 = ${C24all}"
Elastic Constant 2 4 = -3.31876707207669
print "Elastic Constant 2 5 = ${C25all}"
Elastic Constant 2 5 = 0.779381118483663
print "Elastic Constant 2 6 = ${C26all}"
Elastic Constant 2 6 = -2.30176818525273

print "Elastic Constant 3 4 = ${C34all}"
Elastic Constant 3 4 = -2.24509848267528
print "Elastic Constant 3 5 = ${C35all}"
Elastic Constant 3 5 = -1.19607215730787
print "Elastic Constant 3 6 = ${C36all}"
Elastic Constant 3 6 = -1.57948697651083

print "Elastic Constant 4 5 = ${C45all}"
Elastic Constant 4 5 = 1.72137682549098
print "Elastic Constant 4 6 = ${C46all}"
Elastic Constant 4 6 = -0.574611919620215
print "Elastic Constant 5 6 = ${C56all}"
Elastic Constant 5 6 = -1.0569762383142

print "Bulk Modulus = ${bulkmodulus} ${cunits}"
Bulk Modulus = 78.8005517588051 GPa
print "Shear Modulus 1 = ${shearmodulus1} ${cunits}"
Shear Modulus 1 = 46.4797794394317 GPa
print "Shear Modulus 2 = ${shearmodulus2} ${cunits}"
Shear Modulus 2 = 45.6627269628494 GPa
print "Poisson Ratio = ${poissonratio}"
Poisson Ratio = 0.257168594274434

variable rho equal density
print "density (g/cm^3) = ${rho}"
density (g/cm^3) = 1.94651731986873
Total wall time: 0:01:08
