units           real
atom_style      full
boundary        p p p

pair_style      lj/cut 5.000
bond_style      harmonic
angle_style     hybrid fourier cosine/periodic
dihedral_style  harmonic

dielectric      1.0
pair_modify     tail yes mix arithmetic
special_bonds   lj/coul 0.0 0.0 1.0
box tilt        large

The 'box' command has been removed and will be ignored

read_data       ./dat/data.333U-50C-33-vasp
Reading data file ...
  triclinic box = (0 0 0) to (15.070942 13.84627 18.322176) with tilt (-7.731775 0.246278 -0.138154)
WARNING: Triclinic box skew is large. LAMMPS will run inefficiently. (src/domain.cpp:221)
  1 by 1 by 1 MPI processor grid
  reading atoms ...
  365 atoms
  scanning bonds ...
  4 = max bonds/atom
  scanning angles ...
  6 = max angles/atom
  scanning dihedrals ...
  30 = max dihedrals/atom
  triclinic box = (0 0 0) to (15.070942 13.84627 18.322176) with tilt (-7.731775 0.246278 -0.138154)
WARNING: Triclinic box skew is large. LAMMPS will run inefficiently. (src/domain.cpp:221)
  1 by 1 by 1 MPI processor grid
  reading bonds ...
  390 bonds
  reading angles ...
  739 angles
  reading dihedrals ...
  924 dihedrals
Finding 1-2 1-3 1-4 neighbors ...
  special bond factors lj:    0        0        1       
  special bond factors coul:  0        0        1       
     4 = max # of 1-2 neighbors
    10 = max # of 1-3 neighbors
    14 = max # of special neighbors
  special bonds CPU = 0.000 seconds
  read_data CPU = 0.009 seconds

#### Atom Groupings ####
group           fram     id   1:365
365 atoms in group fram
#### END Atom Groupings ####

compute am all property/atom mass
dump        atom_pos all extxyz 100 ./output/333U-50C-33-vasp.lammpstrj
dump_modify atom_pos element Si C H O mass yes
thermo          1000
thermo_style    custom step temp pe ke etotal press vol density

variable up equal 2e-2
variable cfac equal 1.0e-4
variable cunits string GPa

# Define minimization parameters
variable etol equal 0.0
variable ftol equal 1.0e-10
variable maxiter equal 100000
variable maxeval equal 100000
variable dmax equal 1.0e-2

variable temp equal 300.0
variable thermal_damp index 100.0
variable pressure_damp index 500.0

fix relax all box/relax aniso 0.0 vmax 0.001
unfix relax
minimize ${etol} ${ftol} ${maxiter} ${maxeval}
minimize 0 ${ftol} ${maxiter} ${maxeval}
minimize 0 1e-10 ${maxiter} ${maxeval}
minimize 0 1e-10 100000 ${maxeval}
minimize 0 1e-10 100000 100000
Generated 6 of 6 mixed pair_coeff terms from arithmetic mixing rule
Neighbor list info ...
  update: every = 1 steps, delay = 0 steps, check = yes
  max neighbors/atom: 2000, page size: 100000
  master list distance cutoff = 7
  ghost atom cutoff = 7
  binsize = 3.5, bins = 7 4 6
  1 neighbor lists, perpetual/occasional/extra = 1 0 0
  (1) pair lj/cut, perpetual
      attributes: half, newton on
      pair build: half/bin/newton/tri
      stencil: half/bin/3d/tri
      bin: standard
WARNING: Inconsistent image flags
For more information see https://docs.lammps.org/err0027 (src/domain.cpp:1052)
Per MPI rank memory allocation (min/avg/max) = 19.52 | 19.52 | 19.52 Mbytes
   Step          Temp          PotEng         KinEng         TotEng         Press          Volume        Density    
         0   0              1343.3368      0              1343.3368      100586.92      3823.4045      1.7291386    
        92   0              39.17452       0              39.17452       11904.103      3823.4045      1.7291386    
Loop time of 0.0513835 on 1 procs for 92 steps with 365 atoms

99.9% CPU use with 1 MPI tasks x 1 OpenMP threads

Minimization stats:
  Stopping criterion = linesearch alpha is zero
  Energy initial, next-to-last, final = 
      1343.33678283081   39.1745201467801   39.1745201467801
  Force two-norm initial, final = 902.58516 18.999572
  Force max component initial, final = 97.592328 5.2768188
  Final line search alpha, max atom move = 2.5550617e-11 1.3482598e-10
  Iterations, force evaluations = 92 236

MPI task timing breakdown:
Section |  min time  |  avg time  |  max time  |%varavg| %total
---------------------------------------------------------------
Pair    | 0.036228   | 0.036228   | 0.036228   |   0.0 | 70.51
Bond    | 0.0086746  | 0.0086746  | 0.0086746  |   0.0 | 16.88
Neigh   | 0.0040781  | 0.0040781  | 0.0040781  |   0.0 |  7.94
Comm    | 0.0010743  | 0.0010743  | 0.0010743  |   0.0 |  2.09
Output  | 0          | 0          | 0          |   0.0 |  0.00
Modify  | 0          | 0          | 0          |   0.0 |  0.00
Other   |            | 0.001328   |            |       |  2.58

Nlocal:            365 ave         365 max         365 min
Histogram: 1 0 0 0 0 0 0 0 0 0
Nghost:           2309 ave        2309 max        2309 min
Histogram: 1 0 0 0 0 0 0 0 0 0
Neighs:          23656 ave       23656 max       23656 min
Histogram: 1 0 0 0 0 0 0 0 0 0

Total # of neighbors = 23656
Ave neighs/atom = 64.810959
Ave special neighs/atom = 6.1863014
Neighbor list builds = 2
Dangerous builds = 0

# Generating the full routine as described in the paper for UFF
fix nvt_relax   all nvt temp 300 300 ${thermal_damp}
fix nvt_relax   all nvt temp 300 300 100.0
run 100000      # 100 picoseconds
Generated 6 of 6 mixed pair_coeff terms from arithmetic mixing rule
WARNING: Inconsistent image flags
For more information see https://docs.lammps.org/err0027 (src/domain.cpp:1052)
Per MPI rank memory allocation (min/avg/max) = 19.47 | 19.47 | 19.47 Mbytes
   Step          Temp          PotEng         KinEng         TotEng         Press          Volume        Density    
        92   0              39.17452       0              39.17452       11904.103      3823.4045      1.7291386    
      1000   112.60508      149.83949      122.17819      272.01768      13869.247      3823.4045      1.7291386    
      2000   308.31325      355.68154      334.52446      690.206        26138.007      3823.4045      1.7291386    
      3000   276.88058      332.98365      300.41954      633.4032       26025.356      3823.4045      1.7291386    
      4000   312.02337      355.36056      338.55         693.91055      17983.267      3823.4045      1.7291386    
      5000   273.21278      340.88653      296.43992      637.32645      17224.504      3823.4045      1.7291386    
      6000   299.67888      353.71446      325.15604      678.87051      22512.033      3823.4045      1.7291386    
      7000   295.61343      346.55887      320.74496      667.30384      23489.753      3823.4045      1.7291386    
      8000   302.56656      327.31262      328.28922      655.60184      25089.466      3823.4045      1.7291386    
      9000   298.54637      345.82647      323.92725      669.75372      20192.914      3823.4045      1.7291386    
     10000   293.14328      346.96741      318.06481      665.03222      18486.274      3823.4045      1.7291386    
     11000   294.47541      360.73047      319.51019      680.24066      15851.121      3823.4045      1.7291386    
     12000   286.14517      338.72318      310.47176      649.19495      13519.833      3823.4045      1.7291386    
     13000   300.31616      347.68682      325.84749      673.53431      16128.978      3823.4045      1.7291386    
     14000   281.55428      312.1776       305.49057      617.66817      15984.932      3823.4045      1.7291386    
     15000   316.56635      335.37056      343.47919      678.84976      17437.488      3823.4045      1.7291386    
     16000   300.83313      334.35878      326.40842      660.7672       17460.274      3823.4045      1.7291386    
     17000   290.36939      328.05885      315.05511      643.11396      17792.974      3823.4045      1.7291386    
     18000   293.59463      354.58116      318.55453      673.13569      15151.511      3823.4045      1.7291386    
     19000   298.89921      334.00401      324.31009      658.31409      18917.289      3823.4045      1.7291386    
     20000   319.21993      332.23454      346.35837      678.59291      19253.036      3823.4045      1.7291386    
     21000   295.56126      318.85824      320.68836      639.5466       22653.757      3823.4045      1.7291386    
     22000   300.70293      352.48194      326.26714      678.74908      20476.804      3823.4045      1.7291386    
     23000   287.26659      331.18142      311.68852      642.86994      14588.629      3823.4045      1.7291386    
     24000   299.35803      345.9898       324.80792      670.79772      16097.495      3823.4045      1.7291386    
     25000   316.28629      321.07669      343.17532      664.25201      19210.163      3823.4045      1.7291386    
     26000   299.34565      337.13025      324.79448      661.92473      22602.303      3823.4045      1.7291386    
     27000   289.84527      344.52136      314.48642      659.00778      16826.305      3823.4045      1.7291386    
     28000   299.43145      317.99574      324.88758      642.88332      16833.715      3823.4045      1.7291386    
     29000   291.59871      350.92879      316.38893      667.31773      15873.939      3823.4045      1.7291386    
     30000   296.10223      332.45613      321.27532      653.73145      22141.961      3823.4045      1.7291386    
     31000   282.27884      328.3837       306.27673      634.66044      21606.853      3823.4045      1.7291386    
     32000   309.25313      357.61304      335.54424      693.15727      22303.812      3823.4045      1.7291386    
     33000   309.36556      324.63909      335.66623      660.30531      21511.717      3823.4045      1.7291386    
     34000   300.16596      351.84986      325.68452      677.53438      14142.752      3823.4045      1.7291386    
     35000   314.73658      324.10946      341.49386      665.60332      19743.091      3823.4045      1.7291386    
     36000   294.3761       375.26741      319.40244      694.66985      19070.981      3823.4045      1.7291386    
     37000   288.47126      332.87782      312.9956       645.87342      17164.185      3823.4045      1.7291386    
     38000   303.47599      342.38909      329.27596      671.66504      20393.753      3823.4045      1.7291386    
     39000   308.24168      341.01631      334.44681      675.46312      21130.748      3823.4045      1.7291386    
     40000   303.3029       336.15169      329.08815      665.23984      13512.901      3823.4045      1.7291386    
     41000   321.45779      319.88564      348.78648      668.67212      17117.012      3823.4045      1.7291386    
     42000   294.09411      339.24504      319.09647      658.34151      24270.26       3823.4045      1.7291386    
     43000   309.49685      352.51819      335.80868      688.32687      22657.775      3823.4045      1.7291386    
     44000   287.81074      340.60834      312.27893      652.88727      22884.605      3823.4045      1.7291386    
     45000   285.9437       350.3636       310.25317      660.61676      11502.777      3823.4045      1.7291386    
     46000   299.92713      316.17415      325.4254       641.59955      21302.519      3823.4045      1.7291386    
     47000   309.77792      336.30328      336.11365      672.41693      29472.459      3823.4045      1.7291386    
     48000   293.81947      317.93304      318.79849      636.73153      19351.118      3823.4045      1.7291386    
     49000   300.94072      352.88734      326.52515      679.41249      25172.875      3823.4045      1.7291386    
     50000   286.31376      343.81243      310.65469      654.46712      16622.704      3823.4045      1.7291386    
     51000   292.78387      313.71974      317.67485      631.39459      19400.978      3823.4045      1.7291386    
     52000   317.36342      325.49156      344.34402      669.83558      20882.881      3823.4045      1.7291386    
     53000   294.41508      327.28114      319.44474      646.72588      21460.046      3823.4045      1.7291386    
     54000   313.78032      343.52036      340.45631      683.97667      19130.453      3823.4045      1.7291386    
     55000   319.66501      335.7024       346.84129      682.5437       16508.899      3823.4045      1.7291386    
     56000   301.81463      336.73906      327.47336      664.21242      22504.344      3823.4045      1.7291386    
     57000   305.92719      365.24386      331.93554      697.17941      20893.804      3823.4045      1.7291386    
     58000   299.44563      329.52866      324.90296      654.43162      21081.68       3823.4045      1.7291386    
     59000   288.00702      310.26373      312.4919       622.75563      13947.305      3823.4045      1.7291386    
     60000   303.24153      346.10307      329.02157      675.12463      18671.26       3823.4045      1.7291386    
     61000   276.99136      338.91605      300.53974      639.45578      20439.373      3823.4045      1.7291386    
     62000   312.52882      344.4227       339.09842      683.52111      22365.637      3823.4045      1.7291386    
     63000   279.75586      335.80987      303.53927      639.34914      14294.205      3823.4045      1.7291386    
     64000   299.71221      352.62834      325.1922       677.82054      21112.51       3823.4045      1.7291386    
     65000   290.79823      358.4615       315.5204       673.9819       27966.005      3823.4045      1.7291386    
     66000   295.46936      339.50954      320.58864      660.09819      17247.936      3823.4045      1.7291386    
     67000   304.41167      365.99097      330.29119      696.28216      16292.681      3823.4045      1.7291386    
     68000   289.55472      351.82794      314.17117      665.99911      20182.602      3823.4045      1.7291386    
     69000   284.49403      356.79976      308.68024      665.48         17689.887      3823.4045      1.7291386    
     70000   278.99599      349.32052      302.71479      652.03532      14940.012      3823.4045      1.7291386    
     71000   267.223        364.73725      289.94092      654.67818      20831.195      3823.4045      1.7291386    
     72000   297.2548       323.956        322.52587      646.48188      13350.009      3823.4045      1.7291386    
     73000   287.41161      335.86371      311.84586      647.70957      12758.699      3823.4045      1.7291386    
     74000   325.72216      338.76601      353.41338      692.17939      17618.143      3823.4045      1.7291386    
     75000   289.7514       349.84354      314.38458      664.22811      19672.177      3823.4045      1.7291386    
     76000   307.56141      335.73872      333.7087       669.44742      20602.538      3823.4045      1.7291386    
     77000   312.41318      346.78009      338.97294      685.75303      23989.897      3823.4045      1.7291386    
     78000   300.52365      323.52936      326.07263      649.60198      18491.768      3823.4045      1.7291386    
     79000   292.76692      340.14962      317.65645      657.80608      11015.686      3823.4045      1.7291386    
     80000   313.05245      341.87084      339.66655      681.5374       24991.003      3823.4045      1.7291386    
     81000   298.87475      314.61787      324.28355      638.90142      17925.372      3823.4045      1.7291386    
     82000   293.37594      349.33335      318.31725      667.6506       18474.698      3823.4045      1.7291386    
     83000   296.82944      356.14465      322.06436      678.209        18963.179      3823.4045      1.7291386    
     84000   305.98479      360.99183      331.99805      692.98988      19643.272      3823.4045      1.7291386    
     85000   306.14087      329.82401      332.16739      661.99141      18374.147      3823.4045      1.7291386    
     86000   289.32063      343.07635      313.91718      656.99353      18832.151      3823.4045      1.7291386    
     87000   304.27611      335.40094      330.1441       665.54504      18195.947      3823.4045      1.7291386    
     88000   297.27503      342.73207      322.54783      665.2799       22867.983      3823.4045      1.7291386    
     89000   323.9189       344.86376      351.45681      696.32058      18625.022      3823.4045      1.7291386    
     90000   274.72758      368.39142      298.08351      666.47493      21743.077      3823.4045      1.7291386    
     91000   289.388        316.20006      313.99028      630.19034      11313.711      3823.4045      1.7291386    
     92000   293.08926      355.47725      318.0062       673.48345      15921.714      3823.4045      1.7291386    
     93000   312.77723      373.10618      339.36794      712.47412      18666.407      3823.4045      1.7291386    
     94000   303.01612      338.53346      328.77699      667.31046      21468.919      3823.4045      1.7291386    
     95000   303.50574      348.27388      329.30823      677.58211      11484.85       3823.4045      1.7291386    
     96000   288.42034      327.6112       312.94036      640.55155      26203.748      3823.4045      1.7291386    
     97000   303.85615      341.37816      329.68843      671.06659      20590.773      3823.4045      1.7291386    
     98000   285.61808      323.31815      309.89986      633.218        18545.119      3823.4045      1.7291386    
     99000   303.49527      337.39486      329.29688      666.69174      18824.417      3823.4045      1.7291386    
    100000   275.32184      328.70349      298.72828      627.43178      23820.994      3823.4045      1.7291386    
    100092   290.33631      335.51676      315.01921      650.53597      21150.083      3823.4045      1.7291386    
Loop time of 22.8616 on 1 procs for 100000 steps with 365 atoms

Performance: 377.926 ns/day, 0.064 hours/ns, 4374.144 timesteps/s, 1.597 Matom-step/s
99.8% CPU use with 1 MPI tasks x 1 OpenMP threads

MPI task timing breakdown:
Section |  min time  |  avg time  |  max time  |%varavg| %total
---------------------------------------------------------------
Pair    | 13.986     | 13.986     | 13.986     |   0.0 | 61.18
Bond    | 3.5015     | 3.5015     | 3.5015     |   0.0 | 15.32
Neigh   | 3.8794     | 3.8794     | 3.8794     |   0.0 | 16.97
Comm    | 0.5276     | 0.5276     | 0.5276     |   0.0 |  2.31
Output  | 0.50991    | 0.50991    | 0.50991    |   0.0 |  2.23
Modify  | 0.33204    | 0.33204    | 0.33204    |   0.0 |  1.45
Other   |            | 0.125      |            |       |  0.55

Nlocal:            365 ave         365 max         365 min
Histogram: 1 0 0 0 0 0 0 0 0 0
Nghost:           2315 ave        2315 max        2315 min
Histogram: 1 0 0 0 0 0 0 0 0 0
Neighs:          23609 ave       23609 max       23609 min
Histogram: 1 0 0 0 0 0 0 0 0 0

Total # of neighbors = 23609
Ave neighs/atom = 64.682192
Ave special neighs/atom = 6.1863014
Neighbor list builds = 1694
Dangerous builds = 0
unfix           nvt_relax

fix npt_relax   all npt temp 300 300 ${thermal_damp} iso 0 0 ${pressure_damp}
fix npt_relax   all npt temp 300 300 100.0 iso 0 0 ${pressure_damp}
fix npt_relax   all npt temp 300 300 100.0 iso 0 0 500.0
run 100000      # 100 picoseconds
Generated 6 of 6 mixed pair_coeff terms from arithmetic mixing rule
WARNING: Inconsistent image flags
For more information see https://docs.lammps.org/err0027 (src/domain.cpp:1052)
Per MPI rank memory allocation (min/avg/max) = 19.48 | 19.48 | 19.48 Mbytes
   Step          Temp          PotEng         KinEng         TotEng         Press          Volume        Density    
    100092   290.33631      335.51676      315.01921      650.53597      21150.083      3823.4045      1.7291386    
    101000   293.1709       336.19767      318.09478      654.29245      5529.2736      4006.8473      1.6499746    
    102000   293.19622      334.09351      318.12225      652.21576      3970.6216      4016.2441      1.6461142    
    103000   295.46878      329.32862      320.58802      649.91664     -3297.5806      4023.5398      1.6431294    
    104000   290.55644      362.65984      315.25805      677.91789      4497.6205      4004.0195      1.6511399    
    105000   287.79615      341.61943      312.2631       653.88254     -1187.0643      4011.1133      1.6482198    
    106000   296.48889      326.30983      321.69485      648.00468      1873.3358      4016.8506      1.6458656    
    107000   286.88001      320.23997      311.26907      631.50904      11186.961      3993.4533      1.6555086    
    108000   306.4836       337.10499      332.53926      669.64425     -2597.4669      4017.5179      1.6455923    
    109000   309.31937      316.95533      335.61611      652.57144      5192.2119      3974.2504      1.6635077    
    110000   266.76622      328.52859      289.44532      617.97391     -298.20625      4034.094       1.6388305    
    111000   296.91835      341.28329      322.16082      663.44411      3604.1644      3997.4796      1.6538412    
    112000   303.50604      336.92038      329.30856      666.22894      293.72511      3977.4542      1.6621678    
    113000   310.29875      321.20573      336.67876      657.88449     -6801.5493      4026.2954      1.6420048    
    114000   302.97547      326.96328      328.73288      655.69616     -1903.0086      4005.7218      1.6504382    
    115000   309.15885      296.27759      335.44195      631.71954     -1378.7657      3987.24        1.6580884    
    116000   325.70268      294.40792      353.39225      647.80018      3237.5811      3985.7939      1.65869      
    117000   286.28622      301.90688      310.62481      612.53168     -3121.3073      4066.7764      1.6256601    
    118000   309.31209      309.79997      335.60822      645.40818     -3828.596       4029.7535      1.6405957    
    119000   315.78439      297.64434      342.63076      640.27509      2749.7277      3995.7165      1.6545709    
    120000   299.09264      314.9585       324.51995      639.47845     -2379.4535      3959.6085      1.6696591    
    121000   286.0409       306.49042      310.35862      616.84904      2400.2323      3986.5966      1.658356     
    122000   306.73038      325.58481      332.80702      658.39183     -8317.49        4039.4811      1.6366449    
    123000   293.47664      310.35944      318.42651      628.78595     -425.69172      3994.5465      1.6550555    
    124000   298.12586      312.67645      323.47099      636.14744     -2057.3927      3977.092       1.6623192    
    125000   306.64443      315.20331      332.71376      647.91707     -444.07396      4000.6045      1.6525494    
    126000   309.66853      305.89873      335.99496      641.89369     -58.339282      3992.697       1.6558222    
    127000   270.49084      302.14845      293.48658      595.63503     -939.70941      3976.1628      1.6627076    
    128000   318.93019      298.79334      346.044        644.83734      63.957947      3983.5524      1.6596233    
    129000   304.18991      287.0161       330.05057      617.06667     -1462.7108      4002.0488      1.651953     
    130000   297.01251      333.97958      322.26299      656.24257     -6691.5245      4064.2324      1.6266777    
    131000   313.98142      304.47875      340.67451      645.15325     -5291.1144      4007.0818      1.6498781    
    132000   291.71535      310.21322      316.51548      626.72871      3936.3432      4001.3119      1.6522572    
    133000   295.87006      332.8903       321.02342      653.91371      5200.7426      3968.7242      1.6658241    
    134000   306.92008      313.62179      333.01285      646.63464      7224.3857      3979.008       1.6615187    
    135000   295.60089      306.44298      320.73136      627.17435      2315.7102      3984.627       1.6591757    
    136000   304.48237      311.56839      330.36789      641.93628      467.44009      4006.3529      1.6501782    
    137000   278.40117      314.86215      302.0694       616.93155     -55.498827      3989.9403      1.6569662    
    138000   282.08533      307.45292      306.06677      613.5197      -4873.6627      4007.5229      1.6496965    
    139000   319.21683      319.47254      346.355        665.82754      3584.6076      4000.0696      1.6527703    
    140000   292.66047      279.81112      317.54096      597.35208     -2753.9003      3995.3862      1.6547077    
    141000   294.25724      330.81856      319.27347      650.09203     -1173.0772      3982.664       1.6599935    
    142000   326.04611      315.63197      353.76488      669.39684     -1052.0923      4024.0954      1.6429025    
    143000   290.98722      313.51482      315.72546      629.24028      5135.1621      4037.5619      1.6374229    
    144000   306.86904      333.99812      332.95747      666.95559      6152.6923      3979.8185      1.6611804    
    145000   295.19014      314.2101       320.28569      634.49578      126.57146      4018.1638      1.6453277    
    146000   291.92471      283.36674      316.74265      600.10939     -6727.858       4026.3032      1.6420016    
    147000   322.50405      308.488        349.92168      658.40968      1294.1884      4014.6468      1.6467691    
    148000   301.00487      312.63568      326.59476      639.23044     -10278.656      4014.7786      1.6467151    
    149000   301.91111      310.10386      327.57804      637.68189     -2298.9563      4034.7316      1.6385715    
    150000   301.77591      322.39795      327.43135      649.8293      -6195.8139      4003.9459      1.6511702    
    151000   312.08082      315.29743      338.61233      653.90975     -2170.4635      4001.3823      1.6522281    
    152000   306.28888      327.24901      332.32798      659.577        2560.1784      3980.107       1.6610599    
    153000   286.14216      316.24817      310.4685       626.71667      5961.4359      3997.1398      1.6539818    
    154000   292.97892      301.44141      317.88648      619.32789     -1473.6344      4037.1162      1.6376037    
    155000   291.88583      309.8293       316.70047      626.52977     -384.08191      4005.6588      1.6504642    
    156000   296.22957      322.29726      321.41348      643.71074     -7024.2099      4020.2803      1.6444616    
    157000   287.26359      299.26371      311.68527      610.94898     -6889.1468      4009.5632      1.648857     
    158000   308.64215      286.9012       334.88132      621.78252     -2944.4523      4025.9485      1.6421463    
    159000   302.58814      320.36255      328.31263      648.67518     -416.93389      4000.1622      1.652732     
    160000   312.51246      297.05948      339.08066      636.14014      1577.5145      3994.0289      1.65527      
    161000   303.82981      342.41886      329.65985      672.07871     -6575.452       4020.8059      1.6442466    
    162000   301.112        310.92977      326.71099      637.64076      2611.5218      3981.5261      1.6604679    
    163000   304.3199       313.73635      330.19162      643.92796      3004.5185      4014.2474      1.6469329    
    164000   264.71843      310.43842      287.22343      597.66184      93.540738      3968.4468      1.6659405    
    165000   289.17154      349.18048      313.75542      662.9359      -292.05086      4004.6881      1.6508642    
    166000   306.99291      315.54739      333.09187      648.63925     -1247.7423      4006.2268      1.6502302    
    167000   287.95922      318.20246      312.44003      630.64249     -1297.7881      4022.3617      1.6436106    
    168000   307.95369      307.39189      334.13433      641.52622      2758.5743      4017.3554      1.6456588    
    169000   298.14282      324.08154      323.48939      647.57092      180.85777      4000.4767      1.6526021    
    170000   316.1036       327.17204      342.9771       670.14914      1944.2748      4011.5433      1.6480431    
    171000   298.99355      310.98046      324.41245      635.39291     -1212.4856      3995.8267      1.6545253    
    172000   293.59392      321.20134      318.55377      639.75511      445.24537      4010.9876      1.6482714    
    173000   321.21352      321.83481      348.52145      670.35625      3208.721       3977.2721      1.6622439    
    174000   279.95338      322.1436       303.75357      625.89717     -4311.4202      4040.2214      1.636345     
    175000   308.85578      285.31607      335.11311      620.42918      2410.6018      3964.2813      1.667691     
    176000   305.13737      313.78145      331.07858      644.86004      1320.9034      3968.5917      1.6658797    
    177000   300.56355      322.32286      326.11592      648.43878     -3310.3733      4025.2559      1.6424288    
    178000   298.50491      299.13249      323.88227      623.01476     -5309.8927      4010.5024      1.6484709    
    179000   298.25126      334.49261      323.60705      658.09966     -2961.0318      4013.252       1.6473414    
    180000   283.19851      292.36032      307.27459      599.63491     -7841.2578      4031.3692      1.6399382    
    181000   299.23863      311.16018      324.67836      635.83854     -2206.8695      4020.1271      1.6445242    
    182000   294.9585       328.61656      320.03435      648.65092      2003.0959      3989.9285      1.6569711    
    183000   315.6304       334.98451      342.46367      677.44818      2556.6873      4009.9925      1.6486805    
    184000   298.17704      298.33197      323.52652      621.85849     -3129.5893      4010.2446      1.6485768    
    185000   293.10501      326.19813      318.02329      644.22142      4084.4574      3983.6513      1.6595821    
    186000   290.32366      328.50956      315.00549      643.51505      5988.9092      3971.5887      1.6646226    
    187000   311.92478      308.40993      338.44302      646.85294      5268.3603      3985.5638      1.6587857    
    188000   292.85155      301.77588      317.74828      619.52416     -6366.7927      4024.7779      1.6426239    
    189000   302.58577      297.45339      328.31005      625.76345     -4082.9031      4025.7626      1.6422221    
    190000   283.11386      312.24432      307.18275      619.42707     -3823.0597      4002.1386      1.6519159    
    191000   303.30876      325.40455      329.09451      654.49906     -1728.7287      4008.0119      1.6494952    
    192000   293.08375      297.34134      318.00022      615.34156      5974.7404      3986.5004      1.658396     
    193000   302.07645      317.52814      327.75743      645.28557     -4419.3907      4020.3953      1.6444145    
    194000   313.97846      347.6788       340.6713       688.35009      3327.9776      4000.2211      1.6527077    
    195000   287.95055      330.07007      312.43062      642.5007       2102.054       3991.8398      1.6561778    
    196000   285.12167      337.25908      309.36124      646.62032      1241.0536      4009.4246      1.648914     
    197000   301.25534      315.95906      326.86652      642.82557     -4948.8287      4025.0241      1.6425234    
    198000   282.41534      307.37685      306.42484      613.80168      3147.4067      3997.1312      1.6539853    
    199000   316.84804      322.19188      343.78483      665.97671     -45.830411      3991.3781      1.6563694    
    200000   293.28481      311.94613      318.21837      630.16451      2219.1532      4002.3021      1.6518484    
    200092   277.78545      318.10944      301.40134      619.51077     -2350.5493      4031.3634      1.6399406    
Loop time of 25.7687 on 1 procs for 100000 steps with 365 atoms

Performance: 335.290 ns/day, 0.072 hours/ns, 3880.674 timesteps/s, 1.416 Matom-step/s
99.7% CPU use with 1 MPI tasks x 1 OpenMP threads

MPI task timing breakdown:
Section |  min time  |  avg time  |  max time  |%varavg| %total
---------------------------------------------------------------
Pair    | 14.351     | 14.351     | 14.351     |   0.0 | 55.69
Bond    | 4.8082     | 4.8082     | 4.8082     |   0.0 | 18.66
Neigh   | 4.5822     | 4.5822     | 4.5822     |   0.0 | 17.78
Comm    | 0.54969    | 0.54969    | 0.54969    |   0.0 |  2.13
Output  | 0.53069    | 0.53069    | 0.53069    |   0.0 |  2.06
Modify  | 0.80339    | 0.80339    | 0.80339    |   0.0 |  3.12
Other   |            | 0.1439     |            |       |  0.56

Nlocal:            365 ave         365 max         365 min
Histogram: 1 0 0 0 0 0 0 0 0 0
Nghost:           2255 ave        2255 max        2255 min
Histogram: 1 0 0 0 0 0 0 0 0 0
Neighs:          22397 ave       22397 max       22397 min
Histogram: 1 0 0 0 0 0 0 0 0 0

Total # of neighbors = 22397
Ave neighs/atom = 61.361644
Ave special neighs/atom = 6.1863014
Neighbor list builds = 2075
Dangerous builds = 0
unfix           npt_relax

# fix nvt_heat    all nvt temp 300 1000 ${thermal_damp}
# run 100000      # 100 picoseconds
# unfix           nvt_heat
#
# fix npt_heat    all npt temp 1000 1000 ${thermal_damp} iso 0 0 ${pressure_damp}
# run 100000      # 100 picoseconds
# unfix           npt_heat
#
# fix cooling_npt all npt temp 1000 300 ${thermal_damp} iso 0 0 ${pressure_damp}
# run 700000      # 700 picoseconds
# unfix           cooling_npt
#
# fix npt_final   all npt temp 300 300 ${thermal_damp} iso 0 0 100
# run 100000      # 100 picoseconds
# unfix           npt_final

# density computation
variable rho equal density
fix integrate  all npt temp ${temp} ${temp} ${thermal_damp} iso 0 0 ${pressure_damp}
fix integrate  all npt temp 300 ${temp} ${thermal_damp} iso 0 0 ${pressure_damp}
fix integrate  all npt temp 300 300 ${thermal_damp} iso 0 0 ${pressure_damp}
fix integrate  all npt temp 300 300 100.0 iso 0 0 ${pressure_damp}
fix integrate  all npt temp 300 300 100.0 iso 0 0 500.0
fix rho50k all ave/time 10 5000 50000 v_rho mode scalar ave one
run 50000
Generated 6 of 6 mixed pair_coeff terms from arithmetic mixing rule
WARNING: Inconsistent image flags
For more information see https://docs.lammps.org/err0027 (src/domain.cpp:1052)
Per MPI rank memory allocation (min/avg/max) = 19.49 | 19.49 | 19.49 Mbytes
   Step          Temp          PotEng         KinEng         TotEng         Press          Volume        Density    
    200092   277.78545      318.10944      301.40134      619.51077     -2350.5493      4031.3634      1.6399406    
    201000   340.97558      315.62994      369.96358      685.59351      688.7899       4013.7142      1.6471517    
    202000   284.8784       329.38857      309.0973       638.48586      172.91942      3987.9106      1.6578096    
    203000   299.71667      327.55563      325.19704      652.75267      522.67808      4017.5338      1.6455857    
    204000   298.2956       334.733        323.65516      658.38816     -4721.2005      4019.2455      1.6448849    
    205000   309.77337      340.65134      336.10871      676.76004     -835.02929      3991.9689      1.6561242    
    206000   287.512        321.19104      311.95479      633.14583     -2400.8672      3997.9974      1.653627     
    207000   320.4526       319.75843      347.69583      667.45426     -613.13728      3987.7237      1.6578873    
    208000   299.21651      329.45529      324.65436      654.10965      229.05328      4016.7235      1.6459177    
    209000   281.95614      317.83204      305.9266       623.75864     -1907.3604      4029.8959      1.6405377    
    210000   316.40917      340.76236      343.30866      684.07101      4192.8163      3992.9372      1.6557226    
    211000   303.9369       311.68928      329.77605      641.46533     -1797.0012      4023.1425      1.6432916    
    212000   302.91686      290.81507      328.66929      619.48436     -774.44022      3989.2548      1.657251     
    213000   297.99836      326.70967      323.33265      650.04231     -5232.9632      3993.036       1.6556816    
    214000   288.02313      310.89448      312.50937      623.40386     -2287.9752      3976.8759      1.6624095    
    215000   307.66883      320.92599      333.82526      654.75125     -5041.3833      3987.18        1.6581134    
    216000   297.52381      354.57474      322.81776      677.3925      -1113.5979      3990.0484      1.6569213    
    217000   307.54861      309.04745      333.69481      642.74227      9862.7428      3935.5069      1.6798843    
    218000   301.8282       337.06594      327.48808      664.55403     -3384.7925      4004.0957      1.6511085    
    219000   290.96865      318.07067      315.70531      633.77598     -1705.068       3989.0049      1.6573548    
    220000   294.27345      323.03086      319.29107      642.32193      3034.1924      3955.7635      1.671282     
    221000   332.62484      307.65407      360.90289      668.55696     -1722.5912      3973.1462      1.6639701    
    222000   297.2453       336.06515      322.51557      658.58072     -8983.0192      3998.3955      1.6534623    
    223000   284.99663      309.0923       309.22558      618.31788     -5042.6146      3991.3396      1.6563853    
    224000   286.46577      342.03921      310.81961      652.85883     -4999.9718      4029.6715      1.6406291    
    225000   307.04076      315.8227       333.14379      648.96649      3655.568       3945.798       1.675503     
    226000   287.68055      317.92646      312.13768      630.06414     -4300.8659      3999.7075      1.65292      
    227000   311.54082      315.41965      338.02642      653.44607     -5914.6415      4009.7137      1.6487951    
    228000   310.45135      293.48264      336.84433      630.32697     -2444.7953      4002.5691      1.6517382    
    229000   300.12071      307.97439      325.63543      633.60981      3852.2643      3976.0837      1.6627407    
    230000   303.01799      310.64182      328.77902      639.42084      841.16385      3981.9606      1.6602867    
    231000   275.4599       314.43801      298.87809      613.3161      -5823.0211      3970.8981      1.6649121    
    232000   300.79116      332.53622      326.36288      658.8991      -537.79025      3961.9791      1.6686601    
    233000   276.4079       314.23741      299.90668      614.14408      2917.3855      3976.1133      1.6627284    
    234000   300.26664      335.81791      325.79377      661.61168     -1000.2494      3983.6213      1.6595946    
    235000   281.79014      305.79126      305.74648      611.53775     -1474.8527      4014.9588      1.6466412    
    236000   307.20369      305.3198       333.32057      638.64037      6993.5913      3950.6694      1.673437     
    237000   309.69113      304.40564      336.01947      640.42512     -6443.3597      3988.3821      1.6576136    
    238000   291.05513      297.63865      315.79914      613.43779     -3484.8997      3974.2164      1.663522     
    239000   316.0604       310.75548      342.93023      653.68571      1191.143       3959.362       1.6697631    
    240000   318.59672      319.14293      345.68217      664.8251       3561.2848      3974.9225      1.6632265    
    241000   295.44575      300.50199      320.56302      621.06501     -5547.6983      4011.5885      1.6480245    
    242000   271.34598      310.1096       294.41442      604.52402      4357.7942      3949.7454      1.6738285    
    243000   309.34982      318.50679      335.64915      654.15594      4005.0426      3997.6707      1.6537621    
    244000   299.88835      319.44994      325.38332      644.83326      1222.0431      3955.0337      1.6715904    
    245000   306.56369      307.37269      332.62616      639.99885      2695.7259      3955.6564      1.6713272    
    246000   317.28498      324.58704      344.25892      668.84596     -2915.7239      4027.8066      1.6413887    
    247000   302.68889      308.82395      328.42194      637.24589      4271.9616      3982.7386      1.6599624    
    248000   282.44774      306.47364      306.46         612.93364      3688.6294      3966.1038      1.6669247    
    249000   309.00757      311.78002      335.27781      647.05782      9493.105       3957.7053      1.670462     
    250000   287.82907      308.57025      312.29882      620.86906      516.58372      3922.5951      1.6854139    
    250092   286.77938      307.28982      311.15988      618.4497      -5456.0901      3962.2978      1.6685259    
Loop time of 14.2335 on 1 procs for 50000 steps with 365 atoms

Performance: 303.509 ns/day, 0.079 hours/ns, 3512.832 timesteps/s, 1.282 Matom-step/s
99.5% CPU use with 1 MPI tasks x 1 OpenMP threads

MPI task timing breakdown:
Section |  min time  |  avg time  |  max time  |%varavg| %total
---------------------------------------------------------------
Pair    | 7.8399     | 7.8399     | 7.8399     |   0.0 | 55.08
Bond    | 2.6315     | 2.6315     | 2.6315     |   0.0 | 18.49
Neigh   | 2.6314     | 2.6314     | 2.6314     |   0.0 | 18.49
Comm    | 0.30384    | 0.30384    | 0.30384    |   0.0 |  2.13
Output  | 0.30298    | 0.30298    | 0.30298    |   0.0 |  2.13
Modify  | 0.4438     | 0.4438     | 0.4438     |   0.0 |  3.12
Other   |            | 0.08012    |            |       |  0.56

Nlocal:            365 ave         365 max         365 min
Histogram: 1 0 0 0 0 0 0 0 0 0
Nghost:           2299 ave        2299 max        2299 min
Histogram: 1 0 0 0 0 0 0 0 0 0
Neighs:          22905 ave       22905 max       22905 min
Histogram: 1 0 0 0 0 0 0 0 0 0

Total # of neighbors = 22905
Ave neighs/atom = 62.753425
Ave special neighs/atom = 6.1863014
Neighbor list builds = 1100
Dangerous builds = 0
unfix integrate
unfix rho50k

# Compute initial state
fix 3 all box/relax  aniso 0.0
minimize ${etol} ${ftol} ${maxiter} ${maxeval}
minimize 0 ${ftol} ${maxiter} ${maxeval}
minimize 0 1e-10 ${maxiter} ${maxeval}
minimize 0 1e-10 100000 ${maxeval}
minimize 0 1e-10 100000 100000
Generated 6 of 6 mixed pair_coeff terms from arithmetic mixing rule
WARNING: Energy due to 3 extra global DOFs will be included in minimizer energies
 (src/min.cpp:222)
WARNING: Inconsistent image flags
For more information see https://docs.lammps.org/err0027 (src/domain.cpp:1052)
Per MPI rank memory allocation (min/avg/max) = 20.59 | 20.59 | 20.59 Mbytes
   Step          Temp          PotEng         KinEng         TotEng         Press          Volume        Density    
    250092   286.77938      307.28982      311.15988      618.4497      -5456.0901      3962.2978      1.6685259    
    250311   286.77938      126.0882       311.15988      437.24808      3876.2186      3939.9363      1.6779957    
Loop time of 0.0728513 on 1 procs for 219 steps with 365 atoms

100.0% CPU use with 1 MPI tasks x 1 OpenMP threads

Minimization stats:
  Stopping criterion = linesearch alpha is zero
  Energy initial, next-to-last, final = 
      307.289817357021   126.088197301155   126.088197301155
  Force two-norm initial, final = 1226.0628 160.29027
  Force max component initial, final = 939.34512 17.533147
  Final line search alpha, max atom move = 3.6992192e-13 6.4858955e-12
  Iterations, force evaluations = 219 328

MPI task timing breakdown:
Section |  min time  |  avg time  |  max time  |%varavg| %total
---------------------------------------------------------------
Pair    | 0.048381   | 0.048381   | 0.048381   |   0.0 | 66.41
Bond    | 0.014134   | 0.014134   | 0.014134   |   0.0 | 19.40
Neigh   | 0          | 0          | 0          |   0.0 |  0.00
Comm    | 0.0013777  | 0.0013777  | 0.0013777  |   0.0 |  1.89
Output  | 0.0013717  | 0.0013717  | 0.0013717  |   0.0 |  1.88
Modify  | 0          | 0          | 0          |   0.0 |  0.00
Other   |            | 0.007586   |            |       | 10.41

Nlocal:            365 ave         365 max         365 min
Histogram: 1 0 0 0 0 0 0 0 0 0
Nghost:           2299 ave        2299 max        2299 min
Histogram: 1 0 0 0 0 0 0 0 0 0
Neighs:          22905 ave       22905 max       22905 min
Histogram: 1 0 0 0 0 0 0 0 0 0

Total # of neighbors = 22905
Ave neighs/atom = 62.753425
Ave special neighs/atom = 6.1863014
Neighbor list builds = 0
Dangerous builds = 0

variable tmp equal pxx
variable pxx0 equal ${tmp}
variable pxx0 equal 3869.69821771049
variable tmp equal pyy
variable pyy0 equal ${tmp}
variable pyy0 equal 3852.87582541666
variable tmp equal pzz
variable pzz0 equal ${tmp}
variable pzz0 equal 3906.08185148859
variable tmp equal pyz
variable pyz0 equal ${tmp}
variable pyz0 equal 2063.40807926885
variable tmp equal pxz
variable pxz0 equal ${tmp}
variable pxz0 equal -7269.11933165803
variable tmp equal pxy
variable pxy0 equal ${tmp}
variable pxy0 equal 2131.49102023693

variable tmp equal lx
variable lx0 equal ${tmp}
variable lx0 equal 15.1488362571581
variable tmp equal ly
variable ly0 equal ${tmp}
variable ly0 equal 13.9856798727703
variable tmp equal lz
variable lz0 equal ${tmp}
variable lz0 equal 18.5962914553643

# These formulas define the derivatives w.r.t. strain components
# Constants uses $, variables use v_
variable d1 equal -(v_pxx1-${pxx0})/(v_delta/v_len0)*${cfac}
variable d1 equal -(v_pxx1-3869.69821771049)/(v_delta/v_len0)*${cfac}
variable d1 equal -(v_pxx1-3869.69821771049)/(v_delta/v_len0)*0.0001
variable d2 equal -(v_pyy1-${pyy0})/(v_delta/v_len0)*${cfac}
variable d2 equal -(v_pyy1-3852.87582541666)/(v_delta/v_len0)*${cfac}
variable d2 equal -(v_pyy1-3852.87582541666)/(v_delta/v_len0)*0.0001
variable d3 equal -(v_pzz1-${pzz0})/(v_delta/v_len0)*${cfac}
variable d3 equal -(v_pzz1-3906.08185148859)/(v_delta/v_len0)*${cfac}
variable d3 equal -(v_pzz1-3906.08185148859)/(v_delta/v_len0)*0.0001
variable d4 equal -(v_pyz1-${pyz0})/(v_delta/v_len0)*${cfac}
variable d4 equal -(v_pyz1-2063.40807926885)/(v_delta/v_len0)*${cfac}
variable d4 equal -(v_pyz1-2063.40807926885)/(v_delta/v_len0)*0.0001
variable d5 equal -(v_pxz1-${pxz0})/(v_delta/v_len0)*${cfac}
variable d5 equal -(v_pxz1--7269.11933165803)/(v_delta/v_len0)*${cfac}
variable d5 equal -(v_pxz1--7269.11933165803)/(v_delta/v_len0)*0.0001
variable d6 equal -(v_pxy1-${pxy0})/(v_delta/v_len0)*${cfac}
variable d6 equal -(v_pxy1-2131.49102023693)/(v_delta/v_len0)*${cfac}
variable d6 equal -(v_pxy1-2131.49102023693)/(v_delta/v_len0)*0.0001

# displace_atoms all random ${atomjiggle} ${atomjiggle} ${atomjiggle} 87287 units box

# Write restart
unfix 3
write_restart restart_333U-50C-33-vasp.equil
System init for write_restart ...
Generated 6 of 6 mixed pair_coeff terms from arithmetic mixing rule

# uxx Perturbation

variable dir equal 1
include ./input/displace_333U-50C-33-vasp.mod
if "${dir} == 1" then    "variable len0 equal ${lx0}"
variable len0 equal ${lx0}
variable len0 equal 15.1488362571581
if "${dir} == 2" then    "variable len0 equal ${ly0}"
if "${dir} == 3" then    "variable len0 equal ${lz0}"
if "${dir} == 4" then    "variable len0 equal ${lz0}"
if "${dir} == 5" then    "variable len0 equal ${lz0}"
if "${dir} == 6" then    "variable len0 equal ${ly0}"

# Reset box and simulation parameters

clear
OMP_NUM_THREADS environment is not set. Defaulting to 1 thread.
  using 1 OpenMP thread(s) per MPI task
box tilt large

The 'box' command has been removed and will be ignored

read_restart restart_333U-50C-33-vasp.equil
Reading restart file ...
  restart file = 10 Sep 2025, LAMMPS = 10 Sep 2025
  restoring atom style full from restart
  triclinic box = (-0.038947129 -0.069704936 -0.13705773) to (15.109889 13.915975 18.459234) with tilt (-7.8096217 0.24996253 -0.1402209)
WARNING: Triclinic box skew is large. LAMMPS will run inefficiently. (src/domain.cpp:221)
  1 by 1 by 1 MPI processor grid
  restoring pair style lj/cut from restart
  restoring bond style harmonic from restart
  restoring angle style hybrid from restart
  restoring dihedral style harmonic from restart
  365 atoms
  390 bonds
  739 angles
  924 dihedrals
Finding 1-2 1-3 1-4 neighbors ...
  special bond factors lj:    0        0        1       
  special bond factors coul:  0        0        1       
     4 = max # of 1-2 neighbors
    10 = max # of 1-3 neighbors
    14 = max # of special neighbors
  special bonds CPU = 0.000 seconds
  read_restart CPU = 0.002 seconds
include ./input/angles_333U-50C-33-vasp.mod
angle_style hybrid fourier cosine/periodic
angle_coeff 1 fourier 114.246973        0.343737        0.374972        0.281246
angle_coeff 2 fourier 157.882480        0.343737        0.374972        0.281246
angle_coeff 3 fourier 221.735285        0.343737        0.374972        0.281246
angle_coeff 4 fourier 32.417871        0.343737        0.374972        0.281246
angle_coeff 5 fourier 83.380072        0.343737        0.374972        0.281246
angle_coeff 6 fourier 58.020602        0.343737        0.374972        0.281246
angle_coeff 7 fourier 90.420412        0.343737        0.374972        0.281246
angle_coeff 8 fourier 75.498766        0.343737        0.374972        0.281246
angle_coeff 9 cosine/periodic 88.853997              -1               3

# Negative deformation

variable delta equal -${up}*${len0}
variable delta equal -0.02*${len0}
variable delta equal -0.02*15.1488362571581
variable deltaxy equal -${up}*xy
variable deltaxy equal -0.02*xy
variable deltaxz equal -${up}*xz
variable deltaxz equal -0.02*xz
variable deltayz equal -${up}*yz
variable deltayz equal -0.02*yz
if "${dir} == 1" then    "change_box all x delta 0 ${delta} xy delta ${deltaxy} xz delta ${deltaxz} remap units box"
change_box all x delta 0 ${delta} xy delta ${deltaxy} xz delta ${deltaxz} remap units box
change_box all x delta 0 -0.302976725143162 xy delta ${deltaxy} xz delta ${deltaxz} remap units box
change_box all x delta 0 -0.302976725143162 xy delta 0.156192433049901 xz delta ${deltaxz} remap units box
change_box all x delta 0 -0.302976725143162 xy delta 0.156192433049901 xz delta -0.0049992505988852 remap units box
Changing box ...
WARNING: Triclinic box skew is large. LAMMPS will run inefficiently. (src/domain.cpp:221)
  triclinic box = (-0.038947129 -0.069704936 -0.13705773) to (14.806912 13.915975 18.459234) with tilt (-7.8096217 0.24996253 -0.1402209)
WARNING: Triclinic box skew is large. LAMMPS will run inefficiently. (src/domain.cpp:221)
  triclinic box = (-0.038947129 -0.069704936 -0.13705773) to (14.806912 13.915975 18.459234) with tilt (-7.6534292 0.24996253 -0.1402209)
WARNING: Triclinic box skew is large. LAMMPS will run inefficiently. (src/domain.cpp:221)
  triclinic box = (-0.038947129 -0.069704936 -0.13705773) to (14.806912 13.915975 18.459234) with tilt (-7.6534292 0.24496328 -0.1402209)
if "${dir} == 2" then    "change_box all y delta 0 ${delta} yz delta ${deltayz} remap units box"
if "${dir} == 3" then    "change_box all z delta 0 ${delta} remap units box"
if "${dir} == 4" then    "change_box all yz delta ${delta} remap units box"
if "${dir} == 5" then    "change_box all xz delta ${delta} remap units box"
if "${dir} == 6" then    "change_box all xy delta ${delta} remap units box"

# Relax atoms positions

minimize ${etol} ${ftol} ${maxiter} ${maxeval}
minimize 0 ${ftol} ${maxiter} ${maxeval}
minimize 0 1e-10 ${maxiter} ${maxeval}
minimize 0 1e-10 100000 ${maxeval}
minimize 0 1e-10 100000 100000
Generated 6 of 6 mixed pair_coeff terms from arithmetic mixing rule
Neighbor list info ...
  update: every = 1 steps, delay = 0 steps, check = yes
  max neighbors/atom: 2000, page size: 100000
  master list distance cutoff = 7
  ghost atom cutoff = 7
  binsize = 3.5, bins = 7 5 6
  1 neighbor lists, perpetual/occasional/extra = 1 0 0
  (1) pair lj/cut, perpetual
      attributes: half, newton on
      pair build: half/bin/newton/tri
      stencil: half/bin/3d/tri
      bin: standard
WARNING: Inconsistent image flags
For more information see https://docs.lammps.org/err0027 (src/domain.cpp:1052)
Per MPI rank memory allocation (min/avg/max) = 19.52 | 19.52 | 19.52 Mbytes
   Step          Temp          E_pair         E_mol          TotEng         Press     
    250311   286.77938     -438.03877      594.48796      467.60908      30038.248    
    250359   286.77938     -464.20949      448.94266      295.89305      7471.7063    
Loop time of 0.0309126 on 1 procs for 48 steps with 365 atoms

99.9% CPU use with 1 MPI tasks x 1 OpenMP threads

Minimization stats:
  Stopping criterion = linesearch alpha is zero
  Energy initial, next-to-last, final = 
      156.449191833275  -15.2668337923919  -15.2668337923919
  Force two-norm initial, final = 245.0508 15.280378
  Force max component initial, final = 27.556874 2.1924365
  Final line search alpha, max atom move = 4.0272596e-11 8.8295109e-11
  Iterations, force evaluations = 48 155

MPI task timing breakdown:
Section |  min time  |  avg time  |  max time  |%varavg| %total
---------------------------------------------------------------
Pair    | 0.023702   | 0.023702   | 0.023702   |   0.0 | 76.67
Bond    | 0.0059679  | 0.0059679  | 0.0059679  |   0.0 | 19.31
Neigh   | 0          | 0          | 0          |   0.0 |  0.00
Comm    | 0.00069789 | 0.00069789 | 0.00069789 |   0.0 |  2.26
Output  | 0          | 0          | 0          |   0.0 |  0.00
Modify  | 0          | 0          | 0          |   0.0 |  0.00
Other   |            | 0.0005452  |            |       |  1.76

Nlocal:            365 ave         365 max         365 min
Histogram: 1 0 0 0 0 0 0 0 0 0
Nghost:           2327 ave        2327 max        2327 min
Histogram: 1 0 0 0 0 0 0 0 0 0
Neighs:          23509 ave       23509 max       23509 min
Histogram: 1 0 0 0 0 0 0 0 0 0

Total # of neighbors = 23509
Ave neighs/atom = 64.408219
Ave special neighs/atom = 6.1863014
Neighbor list builds = 0
Dangerous builds = 0

# Obtain new stress tensor

variable tmp equal pxx
variable pxx1 equal ${tmp}
variable pxx1 equal 10363.0696353614
variable tmp equal pyy
variable pyy1 equal ${tmp}
variable pyy1 equal 1905.31949471634
variable tmp equal pzz
variable pzz1 equal ${tmp}
variable pzz1 equal 10146.7298363435
variable tmp equal pxy
variable pxy1 equal ${tmp}
variable pxy1 equal -2000.8498111093
variable tmp equal pxz
variable pxz1 equal ${tmp}
variable pxz1 equal -7052.98073221458
variable tmp equal pyz
variable pyz1 equal ${tmp}
variable pyz1 equal 701.046860361237

# Compute elastic constant from pressure tensor

variable C1neg equal ${d1}
variable C1neg equal 32.4668570882546
variable C2neg equal ${d2}
variable C2neg equal -9.7377816535016
variable C3neg equal ${d3}
variable C3neg equal 31.2032399242746
variable C4neg equal ${d4}
variable C4neg equal -6.81180609453807
variable C5neg equal ${d5}
variable C5neg equal 1.08069299721725
variable C6neg equal ${d6}
variable C6neg equal -20.6617041567312

# Reset box and simulation parameters

clear
OMP_NUM_THREADS environment is not set. Defaulting to 1 thread.
  using 1 OpenMP thread(s) per MPI task
box tilt large

The 'box' command has been removed and will be ignored

read_restart restart_333U-50C-33-vasp.equil
Reading restart file ...
  restart file = 10 Sep 2025, LAMMPS = 10 Sep 2025
  restoring atom style full from restart
  triclinic box = (-0.038947129 -0.069704936 -0.13705773) to (15.109889 13.915975 18.459234) with tilt (-7.8096217 0.24996253 -0.1402209)
WARNING: Triclinic box skew is large. LAMMPS will run inefficiently. (src/domain.cpp:221)
  1 by 1 by 1 MPI processor grid
  restoring pair style lj/cut from restart
  restoring bond style harmonic from restart
  restoring angle style hybrid from restart
  restoring dihedral style harmonic from restart
  365 atoms
  390 bonds
  739 angles
  924 dihedrals
Finding 1-2 1-3 1-4 neighbors ...
  special bond factors lj:    0        0        1       
  special bond factors coul:  0        0        1       
     4 = max # of 1-2 neighbors
    10 = max # of 1-3 neighbors
    14 = max # of special neighbors
  special bonds CPU = 0.000 seconds
  read_restart CPU = 0.002 seconds
include ./input/angles_333U-50C-33-vasp.mod
angle_style hybrid fourier cosine/periodic
angle_coeff 1 fourier 114.246973        0.343737        0.374972        0.281246
angle_coeff 2 fourier 157.882480        0.343737        0.374972        0.281246
angle_coeff 3 fourier 221.735285        0.343737        0.374972        0.281246
angle_coeff 4 fourier 32.417871        0.343737        0.374972        0.281246
angle_coeff 5 fourier 83.380072        0.343737        0.374972        0.281246
angle_coeff 6 fourier 58.020602        0.343737        0.374972        0.281246
angle_coeff 7 fourier 90.420412        0.343737        0.374972        0.281246
angle_coeff 8 fourier 75.498766        0.343737        0.374972        0.281246
angle_coeff 9 cosine/periodic 88.853997              -1               3

# Positive deformation

variable delta equal ${up}*${len0}
variable delta equal 0.02*${len0}
variable delta equal 0.02*15.1488362571581
variable deltaxy equal ${up}*xy
variable deltaxy equal 0.02*xy
variable deltaxz equal ${up}*xz
variable deltaxz equal 0.02*xz
variable deltayz equal ${up}*yz
variable deltayz equal 0.02*yz
if "${dir} == 1" then    "change_box all x delta 0 ${delta} xy delta ${deltaxy} xz delta ${deltaxz} remap units box"
change_box all x delta 0 ${delta} xy delta ${deltaxy} xz delta ${deltaxz} remap units box
change_box all x delta 0 0.302976725143162 xy delta ${deltaxy} xz delta ${deltaxz} remap units box
change_box all x delta 0 0.302976725143162 xy delta -0.156192433049901 xz delta ${deltaxz} remap units box
change_box all x delta 0 0.302976725143162 xy delta -0.156192433049901 xz delta 0.0049992505988852 remap units box
Changing box ...
WARNING: Triclinic box skew is large. LAMMPS will run inefficiently. (src/domain.cpp:221)
  triclinic box = (-0.038947129 -0.069704936 -0.13705773) to (15.412866 13.915975 18.459234) with tilt (-7.8096217 0.24996253 -0.1402209)
WARNING: Triclinic box skew is large. LAMMPS will run inefficiently. (src/domain.cpp:221)
  triclinic box = (-0.038947129 -0.069704936 -0.13705773) to (15.412866 13.915975 18.459234) with tilt (-7.9658141 0.24996253 -0.1402209)
WARNING: Triclinic box skew is large. LAMMPS will run inefficiently. (src/domain.cpp:221)
  triclinic box = (-0.038947129 -0.069704936 -0.13705773) to (15.412866 13.915975 18.459234) with tilt (-7.9658141 0.25496178 -0.1402209)
if "${dir} == 2" then    "change_box all y delta 0 ${delta} yz delta ${deltayz} remap units box"
if "${dir} == 3" then    "change_box all z delta 0 ${delta} remap units box"
if "${dir} == 4" then    "change_box all yz delta ${delta} remap units box"
if "${dir} == 5" then    "change_box all xz delta ${delta} remap units box"
if "${dir} == 6" then    "change_box all xy delta ${delta} remap units box"

# Relax atoms positions

minimize ${etol} ${ftol} ${maxiter} ${maxeval}
minimize 0 ${ftol} ${maxiter} ${maxeval}
minimize 0 1e-10 ${maxiter} ${maxeval}
minimize 0 1e-10 100000 ${maxeval}
minimize 0 1e-10 100000 100000
Generated 6 of 6 mixed pair_coeff terms from arithmetic mixing rule
Neighbor list info ...
  update: every = 1 steps, delay = 0 steps, check = yes
  max neighbors/atom: 2000, page size: 100000
  master list distance cutoff = 7
  ghost atom cutoff = 7
  binsize = 3.5, bins = 7 5 6
  1 neighbor lists, perpetual/occasional/extra = 1 0 0
  (1) pair lj/cut, perpetual
      attributes: half, newton on
      pair build: half/bin/newton/tri
      stencil: half/bin/3d/tri
      bin: standard
WARNING: Inconsistent image flags
For more information see https://docs.lammps.org/err0027 (src/domain.cpp:1052)
Per MPI rank memory allocation (min/avg/max) = 19.52 | 19.52 | 19.52 Mbytes
   Step          Temp          E_pair         E_mol          TotEng         Press     
    250311   286.77938     -469.7369       626.25166      467.67465     -21448.032    
    250369   286.77938     -486.13629      484.7804       309.80399     -6241.5137    
Loop time of 0.0850586 on 1 procs for 58 steps with 365 atoms

100.0% CPU use with 1 MPI tasks x 1 OpenMP threads

Minimization stats:
  Stopping criterion = linesearch alpha is zero
  Energy initial, next-to-last, final = 
       156.51476786392  -1.35589031355164  -1.35589031355164
  Force two-norm initial, final = 237.79211 6.7144554
  Force max component initial, final = 24.586517 0.934461
  Final line search alpha, max atom move = 1.9932829e-10 1.8626451e-10
  Iterations, force evaluations = 58 464

MPI task timing breakdown:
Section |  min time  |  avg time  |  max time  |%varavg| %total
---------------------------------------------------------------
Pair    | 0.064783   | 0.064783   | 0.064783   |   0.0 | 76.16
Bond    | 0.017026   | 0.017026   | 0.017026   |   0.0 | 20.02
Neigh   | 0          | 0          | 0          |   0.0 |  0.00
Comm    | 0.0020478  | 0.0020478  | 0.0020478  |   0.0 |  2.41
Output  | 0          | 0          | 0          |   0.0 |  0.00
Modify  | 0          | 0          | 0          |   0.0 |  0.00
Other   |            | 0.001202   |            |       |  1.41

Nlocal:            365 ave         365 max         365 min
Histogram: 1 0 0 0 0 0 0 0 0 0
Nghost:           2295 ave        2295 max        2295 min
Histogram: 1 0 0 0 0 0 0 0 0 0
Neighs:          22558 ave       22558 max       22558 min
Histogram: 1 0 0 0 0 0 0 0 0 0

Total # of neighbors = 22558
Ave neighs/atom = 61.80274
Ave special neighs/atom = 6.1863014
Neighbor list builds = 0
Dangerous builds = 0

# Obtain new stress tensor

variable tmp equal pe
variable e1 equal ${tmp}
variable e1 equal -1.35589031355164
variable tmp equal press
variable p1 equal ${tmp}
variable p1 equal -6241.5137438934
variable tmp equal pxx
variable pxx1 equal ${tmp}
variable pxx1 equal -12688.8681630725
variable tmp equal pyy
variable pyy1 equal ${tmp}
variable pyy1 equal -6811.612690578
variable tmp equal pzz
variable pzz1 equal ${tmp}
variable pzz1 equal 775.93962197026
variable tmp equal pxy
variable pxy1 equal ${tmp}
variable pxy1 equal -410.1743167016
variable tmp equal pxz
variable pxz1 equal ${tmp}
variable pxz1 equal -6147.0481245549
variable tmp equal pyz
variable pyz1 equal ${tmp}
variable pyz1 equal 980.18529165108

# Compute elastic constant from pressure tensor

variable C1pos equal ${d1}
variable C1pos equal 82.792831903915
variable C2pos equal ${d2}
variable C2pos equal 53.3224425799733
variable C3pos equal ${d3}
variable C3pos equal 15.6507111475917
variable C4pos equal ${d4}
variable C4pos equal 5.41611393808885
variable C5pos equal ${d5}
variable C5pos equal -5.61035603551565
variable C6pos equal ${d6}
variable C6pos equal 12.7083266846927

# Combine positive and negative

variable C1${dir} equal 0.5*(${C1neg}+${C1pos})
variable C11 equal 0.5*(${C1neg}+${C1pos})
variable C11 equal 0.5*(32.4668570882546+${C1pos})
variable C11 equal 0.5*(32.4668570882546+82.792831903915)
variable C2${dir} equal 0.5*(${C2neg}+${C2pos})
variable C21 equal 0.5*(${C2neg}+${C2pos})
variable C21 equal 0.5*(-9.7377816535016+${C2pos})
variable C21 equal 0.5*(-9.7377816535016+53.3224425799733)
variable C3${dir} equal 0.5*(${C3neg}+${C3pos})
variable C31 equal 0.5*(${C3neg}+${C3pos})
variable C31 equal 0.5*(31.2032399242746+${C3pos})
variable C31 equal 0.5*(31.2032399242746+15.6507111475917)
variable C4${dir} equal 0.5*(${C4neg}+${C4pos})
variable C41 equal 0.5*(${C4neg}+${C4pos})
variable C41 equal 0.5*(-6.81180609453807+${C4pos})
variable C41 equal 0.5*(-6.81180609453807+5.41611393808885)
variable C5${dir} equal 0.5*(${C5neg}+${C5pos})
variable C51 equal 0.5*(${C5neg}+${C5pos})
variable C51 equal 0.5*(1.08069299721725+${C5pos})
variable C51 equal 0.5*(1.08069299721725+-5.61035603551565)
variable C6${dir} equal 0.5*(${C6neg}+${C6pos})
variable C61 equal 0.5*(${C6neg}+${C6pos})
variable C61 equal 0.5*(-20.6617041567312+${C6pos})
variable C61 equal 0.5*(-20.6617041567312+12.7083266846927)

# Delete dir to make sure it is not reused

variable dir delete

# uyy Perturbation

variable dir equal 2
include ./input/displace_333U-50C-33-vasp.mod
if "${dir} == 1" then    "variable len0 equal ${lx0}"
if "${dir} == 2" then    "variable len0 equal ${ly0}"
variable len0 equal ${ly0}
variable len0 equal 13.9856798727703
if "${dir} == 3" then    "variable len0 equal ${lz0}"
if "${dir} == 4" then    "variable len0 equal ${lz0}"
if "${dir} == 5" then    "variable len0 equal ${lz0}"
if "${dir} == 6" then    "variable len0 equal ${ly0}"

# Reset box and simulation parameters

clear
OMP_NUM_THREADS environment is not set. Defaulting to 1 thread.
  using 1 OpenMP thread(s) per MPI task
box tilt large

The 'box' command has been removed and will be ignored

read_restart restart_333U-50C-33-vasp.equil
Reading restart file ...
  restart file = 10 Sep 2025, LAMMPS = 10 Sep 2025
  restoring atom style full from restart
  triclinic box = (-0.038947129 -0.069704936 -0.13705773) to (15.109889 13.915975 18.459234) with tilt (-7.8096217 0.24996253 -0.1402209)
WARNING: Triclinic box skew is large. LAMMPS will run inefficiently. (src/domain.cpp:221)
  1 by 1 by 1 MPI processor grid
  restoring pair style lj/cut from restart
  restoring bond style harmonic from restart
  restoring angle style hybrid from restart
  restoring dihedral style harmonic from restart
  365 atoms
  390 bonds
  739 angles
  924 dihedrals
Finding 1-2 1-3 1-4 neighbors ...
  special bond factors lj:    0        0        1       
  special bond factors coul:  0        0        1       
     4 = max # of 1-2 neighbors
    10 = max # of 1-3 neighbors
    14 = max # of special neighbors
  special bonds CPU = 0.000 seconds
  read_restart CPU = 0.001 seconds
include ./input/angles_333U-50C-33-vasp.mod
angle_style hybrid fourier cosine/periodic
angle_coeff 1 fourier 114.246973        0.343737        0.374972        0.281246
angle_coeff 2 fourier 157.882480        0.343737        0.374972        0.281246
angle_coeff 3 fourier 221.735285        0.343737        0.374972        0.281246
angle_coeff 4 fourier 32.417871        0.343737        0.374972        0.281246
angle_coeff 5 fourier 83.380072        0.343737        0.374972        0.281246
angle_coeff 6 fourier 58.020602        0.343737        0.374972        0.281246
angle_coeff 7 fourier 90.420412        0.343737        0.374972        0.281246
angle_coeff 8 fourier 75.498766        0.343737        0.374972        0.281246
angle_coeff 9 cosine/periodic 88.853997              -1               3

# Negative deformation

variable delta equal -${up}*${len0}
variable delta equal -0.02*${len0}
variable delta equal -0.02*13.9856798727703
variable deltaxy equal -${up}*xy
variable deltaxy equal -0.02*xy
variable deltaxz equal -${up}*xz
variable deltaxz equal -0.02*xz
variable deltayz equal -${up}*yz
variable deltayz equal -0.02*yz
if "${dir} == 1" then    "change_box all x delta 0 ${delta} xy delta ${deltaxy} xz delta ${deltaxz} remap units box"
if "${dir} == 2" then    "change_box all y delta 0 ${delta} yz delta ${deltayz} remap units box"
change_box all y delta 0 ${delta} yz delta ${deltayz} remap units box
change_box all y delta 0 -0.279713597455406 yz delta ${deltayz} remap units box
change_box all y delta 0 -0.279713597455406 yz delta 0.00280441804480462 remap units box
Changing box ...
WARNING: Triclinic box skew is large. LAMMPS will run inefficiently. (src/domain.cpp:221)
  triclinic box = (-0.038947129 -0.069704936 -0.13705773) to (15.109889 13.636261 18.459234) with tilt (-7.8096217 0.24996253 -0.1402209)
WARNING: Triclinic box skew is large. LAMMPS will run inefficiently. (src/domain.cpp:221)
  triclinic box = (-0.038947129 -0.069704936 -0.13705773) to (15.109889 13.636261 18.459234) with tilt (-7.8096217 0.24996253 -0.13741648)
if "${dir} == 3" then    "change_box all z delta 0 ${delta} remap units box"
if "${dir} == 4" then    "change_box all yz delta ${delta} remap units box"
if "${dir} == 5" then    "change_box all xz delta ${delta} remap units box"
if "${dir} == 6" then    "change_box all xy delta ${delta} remap units box"

# Relax atoms positions

minimize ${etol} ${ftol} ${maxiter} ${maxeval}
minimize 0 ${ftol} ${maxiter} ${maxeval}
minimize 0 1e-10 ${maxiter} ${maxeval}
minimize 0 1e-10 100000 ${maxeval}
minimize 0 1e-10 100000 100000
Generated 6 of 6 mixed pair_coeff terms from arithmetic mixing rule
Neighbor list info ...
  update: every = 1 steps, delay = 0 steps, check = yes
  max neighbors/atom: 2000, page size: 100000
  master list distance cutoff = 7
  ghost atom cutoff = 7
  binsize = 3.5, bins = 7 4 6
  1 neighbor lists, perpetual/occasional/extra = 1 0 0
  (1) pair lj/cut, perpetual
      attributes: half, newton on
      pair build: half/bin/newton/tri
      stencil: half/bin/3d/tri
      bin: standard
WARNING: Inconsistent image flags
For more information see https://docs.lammps.org/err0027 (src/domain.cpp:1052)
Per MPI rank memory allocation (min/avg/max) = 19.52 | 19.52 | 19.52 Mbytes
   Step          Temp          E_pair         E_mol          TotEng         Press     
    250311   286.77938     -435.1241       591.5289       467.56469      29922.927    
    250365   286.77938     -459.48456      444.33666      296.01198      9268.3374    
Loop time of 0.0389438 on 1 procs for 54 steps with 365 atoms

100.0% CPU use with 1 MPI tasks x 1 OpenMP threads

Minimization stats:
  Stopping criterion = linesearch alpha is zero
  Energy initial, next-to-last, final = 
      156.404805170152  -15.1479029152997  -15.1479029152997
  Force two-norm initial, final = 234.7901 12.846724
  Force max component initial, final = 22.16997 1.6006227
  Final line search alpha, max atom move = 4.2026144e-11 6.7267999e-11
  Iterations, force evaluations = 54 170

MPI task timing breakdown:
Section |  min time  |  avg time  |  max time  |%varavg| %total
---------------------------------------------------------------
Pair    | 0.028055   | 0.028055   | 0.028055   |   0.0 | 72.04
Bond    | 0.0069326  | 0.0069326  | 0.0069326  |   0.0 | 17.80
Neigh   | 0.0023808  | 0.0023808  | 0.0023808  |   0.0 |  6.11
Comm    | 0.00088239 | 0.00088239 | 0.00088239 |   0.0 |  2.27
Output  | 0          | 0          | 0          |   0.0 |  0.00
Modify  | 0          | 0          | 0          |   0.0 |  0.00
Other   |            | 0.0006926  |            |       |  1.78

Nlocal:            365 ave         365 max         365 min
Histogram: 1 0 0 0 0 0 0 0 0 0
Nghost:           2301 ave        2301 max        2301 min
Histogram: 1 0 0 0 0 0 0 0 0 0
Neighs:          23451 ave       23451 max       23451 min
Histogram: 1 0 0 0 0 0 0 0 0 0

Total # of neighbors = 23451
Ave neighs/atom = 64.249315
Ave special neighs/atom = 6.1863014
Neighbor list builds = 1
Dangerous builds = 0

# Obtain new stress tensor

variable tmp equal pxx
variable pxx1 equal ${tmp}
variable pxx1 equal 3329.26064253985
variable tmp equal pyy
variable pyy1 equal ${tmp}
variable pyy1 equal 12250.5088508305
variable tmp equal pzz
variable pzz1 equal ${tmp}
variable pzz1 equal 12225.2428072314
variable tmp equal pxy
variable pxy1 equal ${tmp}
variable pxy1 equal -1160.45470885976
variable tmp equal pxz
variable pxz1 equal ${tmp}
variable pxz1 equal -6476.42640558985
variable tmp equal pyz
variable pyz1 equal ${tmp}
variable pyz1 equal 1211.35902174218

# Compute elastic constant from pressure tensor

variable C1neg equal ${d1}
variable C1neg equal -2.7021878758532
variable C2neg equal ${d2}
variable C2neg equal 41.9881651270692
variable C3neg equal ${d3}
variable C3neg equal 41.595804778714
variable C4neg equal ${d4}
variable C4neg equal -4.26024528763335
variable C5neg equal ${d5}
variable C5neg equal 3.9634646303409
variable C6neg equal ${d6}
variable C6neg equal -16.4597286454834

# Reset box and simulation parameters

clear
OMP_NUM_THREADS environment is not set. Defaulting to 1 thread.
  using 1 OpenMP thread(s) per MPI task
box tilt large

The 'box' command has been removed and will be ignored

read_restart restart_333U-50C-33-vasp.equil
Reading restart file ...
  restart file = 10 Sep 2025, LAMMPS = 10 Sep 2025
  restoring atom style full from restart
  triclinic box = (-0.038947129 -0.069704936 -0.13705773) to (15.109889 13.915975 18.459234) with tilt (-7.8096217 0.24996253 -0.1402209)
WARNING: Triclinic box skew is large. LAMMPS will run inefficiently. (src/domain.cpp:221)
  1 by 1 by 1 MPI processor grid
  restoring pair style lj/cut from restart
  restoring bond style harmonic from restart
  restoring angle style hybrid from restart
  restoring dihedral style harmonic from restart
  365 atoms
  390 bonds
  739 angles
  924 dihedrals
Finding 1-2 1-3 1-4 neighbors ...
  special bond factors lj:    0        0        1       
  special bond factors coul:  0        0        1       
     4 = max # of 1-2 neighbors
    10 = max # of 1-3 neighbors
    14 = max # of special neighbors
  special bonds CPU = 0.000 seconds
  read_restart CPU = 0.001 seconds
include ./input/angles_333U-50C-33-vasp.mod
angle_style hybrid fourier cosine/periodic
angle_coeff 1 fourier 114.246973        0.343737        0.374972        0.281246
angle_coeff 2 fourier 157.882480        0.343737        0.374972        0.281246
angle_coeff 3 fourier 221.735285        0.343737        0.374972        0.281246
angle_coeff 4 fourier 32.417871        0.343737        0.374972        0.281246
angle_coeff 5 fourier 83.380072        0.343737        0.374972        0.281246
angle_coeff 6 fourier 58.020602        0.343737        0.374972        0.281246
angle_coeff 7 fourier 90.420412        0.343737        0.374972        0.281246
angle_coeff 8 fourier 75.498766        0.343737        0.374972        0.281246
angle_coeff 9 cosine/periodic 88.853997              -1               3

# Positive deformation

variable delta equal ${up}*${len0}
variable delta equal 0.02*${len0}
variable delta equal 0.02*13.9856798727703
variable deltaxy equal ${up}*xy
variable deltaxy equal 0.02*xy
variable deltaxz equal ${up}*xz
variable deltaxz equal 0.02*xz
variable deltayz equal ${up}*yz
variable deltayz equal 0.02*yz
if "${dir} == 1" then    "change_box all x delta 0 ${delta} xy delta ${deltaxy} xz delta ${deltaxz} remap units box"
if "${dir} == 2" then    "change_box all y delta 0 ${delta} yz delta ${deltayz} remap units box"
change_box all y delta 0 ${delta} yz delta ${deltayz} remap units box
change_box all y delta 0 0.279713597455406 yz delta ${deltayz} remap units box
change_box all y delta 0 0.279713597455406 yz delta -0.00280441804480462 remap units box
Changing box ...
WARNING: Triclinic box skew is large. LAMMPS will run inefficiently. (src/domain.cpp:221)
  triclinic box = (-0.038947129 -0.069704936 -0.13705773) to (15.109889 14.195689 18.459234) with tilt (-7.8096217 0.24996253 -0.1402209)
WARNING: Triclinic box skew is large. LAMMPS will run inefficiently. (src/domain.cpp:221)
  triclinic box = (-0.038947129 -0.069704936 -0.13705773) to (15.109889 14.195689 18.459234) with tilt (-7.8096217 0.24996253 -0.14302532)
if "${dir} == 3" then    "change_box all z delta 0 ${delta} remap units box"
if "${dir} == 4" then    "change_box all yz delta ${delta} remap units box"
if "${dir} == 5" then    "change_box all xz delta ${delta} remap units box"
if "${dir} == 6" then    "change_box all xy delta ${delta} remap units box"

# Relax atoms positions

minimize ${etol} ${ftol} ${maxiter} ${maxeval}
minimize 0 ${ftol} ${maxiter} ${maxeval}
minimize 0 1e-10 ${maxiter} ${maxeval}
minimize 0 1e-10 100000 ${maxeval}
minimize 0 1e-10 100000 100000
Generated 6 of 6 mixed pair_coeff terms from arithmetic mixing rule
Neighbor list info ...
  update: every = 1 steps, delay = 0 steps, check = yes
  max neighbors/atom: 2000, page size: 100000
  master list distance cutoff = 7
  ghost atom cutoff = 7
  binsize = 3.5, bins = 7 5 6
  1 neighbor lists, perpetual/occasional/extra = 1 0 0
  (1) pair lj/cut, perpetual
      attributes: half, newton on
      pair build: half/bin/newton/tri
      stencil: half/bin/3d/tri
      bin: standard
WARNING: Inconsistent image flags
For more information see https://docs.lammps.org/err0027 (src/domain.cpp:1052)
Per MPI rank memory allocation (min/avg/max) = 19.52 | 19.52 | 19.52 Mbytes
   Step          Temp          E_pair         E_mol          TotEng         Press     
    250311   286.77938     -472.34058      627.50056      466.31986     -21282.997    
    250376   286.77938     -486.37575      487.266        312.05013     -7178.1033    
Loop time of 0.15452 on 1 procs for 65 steps with 365 atoms

100.0% CPU use with 1 MPI tasks x 1 OpenMP threads

Minimization stats:
  Stopping criterion = linesearch alpha is zero
  Energy initial, next-to-last, final = 
      155.159974527044  0.890247400075737  0.890247400075737
  Force two-norm initial, final = 231.78886 9.7512657
  Force max component initial, final = 28.381492 1.2489864
  Final line search alpha, max atom move = 7.4566271e-11 9.3132257e-11
  Iterations, force evaluations = 65 664

MPI task timing breakdown:
Section |  min time  |  avg time  |  max time  |%varavg| %total
---------------------------------------------------------------
Pair    | 0.11777    | 0.11777    | 0.11777    |   0.0 | 76.22
Bond    | 0.030991   | 0.030991   | 0.030991   |   0.0 | 20.06
Neigh   | 0          | 0          | 0          |   0.0 |  0.00
Comm    | 0.0036127  | 0.0036127  | 0.0036127  |   0.0 |  2.34
Output  | 0          | 0          | 0          |   0.0 |  0.00
Modify  | 0          | 0          | 0          |   0.0 |  0.00
Other   |            | 0.002146   |            |       |  1.39

Nlocal:            365 ave         365 max         365 min
Histogram: 1 0 0 0 0 0 0 0 0 0
Nghost:           2283 ave        2283 max        2283 min
Histogram: 1 0 0 0 0 0 0 0 0 0
Neighs:          22543 ave       22543 max       22543 min
Histogram: 1 0 0 0 0 0 0 0 0 0

Total # of neighbors = 22543
Ave neighs/atom = 61.761644
Ave special neighs/atom = 6.1863014
Neighbor list builds = 0
Dangerous builds = 0

# Obtain new stress tensor

variable tmp equal pe
variable e1 equal ${tmp}
variable e1 equal 0.890247400075737
variable tmp equal press
variable p1 equal ${tmp}
variable p1 equal -7178.1033269237
variable tmp equal pxx
variable pxx1 equal ${tmp}
variable pxx1 equal -5963.96080853049
variable tmp equal pyy
variable pyy1 equal ${tmp}
variable pyy1 equal -15511.3260617177
variable tmp equal pzz
variable pzz1 equal ${tmp}
variable pzz1 equal -59.0231105229135
variable tmp equal pxy
variable pxy1 equal ${tmp}
variable pxy1 equal -920.832578164508
variable tmp equal pxz
variable pxz1 equal ${tmp}
variable pxz1 equal -6621.1620860805
variable tmp equal pyz
variable pyz1 equal ${tmp}
variable pyz1 equal 678.141059201621

# Compute elastic constant from pressure tensor

variable C1pos equal ${d1}
variable C1pos equal 49.1682951312049
variable C2pos equal ${d2}
variable C2pos equal 96.8210094356718
variable C3pos equal ${d3}
variable C3pos equal 19.8255248100575
variable C4pos equal ${d4}
variable C4pos equal 6.92633510033614
variable C5pos equal ${d5}
variable C5pos equal -3.23978622788765
variable C6pos equal ${d6}
variable C6pos equal 15.2616179920072

# Combine positive and negative

variable C1${dir} equal 0.5*(${C1neg}+${C1pos})
variable C12 equal 0.5*(${C1neg}+${C1pos})
variable C12 equal 0.5*(-2.7021878758532+${C1pos})
variable C12 equal 0.5*(-2.7021878758532+49.1682951312049)
variable C2${dir} equal 0.5*(${C2neg}+${C2pos})
variable C22 equal 0.5*(${C2neg}+${C2pos})
variable C22 equal 0.5*(41.9881651270692+${C2pos})
variable C22 equal 0.5*(41.9881651270692+96.8210094356718)
variable C3${dir} equal 0.5*(${C3neg}+${C3pos})
variable C32 equal 0.5*(${C3neg}+${C3pos})
variable C32 equal 0.5*(41.595804778714+${C3pos})
variable C32 equal 0.5*(41.595804778714+19.8255248100575)
variable C4${dir} equal 0.5*(${C4neg}+${C4pos})
variable C42 equal 0.5*(${C4neg}+${C4pos})
variable C42 equal 0.5*(-4.26024528763335+${C4pos})
variable C42 equal 0.5*(-4.26024528763335+6.92633510033614)
variable C5${dir} equal 0.5*(${C5neg}+${C5pos})
variable C52 equal 0.5*(${C5neg}+${C5pos})
variable C52 equal 0.5*(3.9634646303409+${C5pos})
variable C52 equal 0.5*(3.9634646303409+-3.23978622788765)
variable C6${dir} equal 0.5*(${C6neg}+${C6pos})
variable C62 equal 0.5*(${C6neg}+${C6pos})
variable C62 equal 0.5*(-16.4597286454834+${C6pos})
variable C62 equal 0.5*(-16.4597286454834+15.2616179920072)

# Delete dir to make sure it is not reused

variable dir delete

# uzz Perturbation

variable dir equal 3
include ./input/displace_333U-50C-33-vasp.mod
if "${dir} == 1" then    "variable len0 equal ${lx0}"
if "${dir} == 2" then    "variable len0 equal ${ly0}"
if "${dir} == 3" then    "variable len0 equal ${lz0}"
variable len0 equal ${lz0}
variable len0 equal 18.5962914553643
if "${dir} == 4" then    "variable len0 equal ${lz0}"
if "${dir} == 5" then    "variable len0 equal ${lz0}"
if "${dir} == 6" then    "variable len0 equal ${ly0}"

# Reset box and simulation parameters

clear
OMP_NUM_THREADS environment is not set. Defaulting to 1 thread.
  using 1 OpenMP thread(s) per MPI task
box tilt large

The 'box' command has been removed and will be ignored

read_restart restart_333U-50C-33-vasp.equil
Reading restart file ...
  restart file = 10 Sep 2025, LAMMPS = 10 Sep 2025
  restoring atom style full from restart
  triclinic box = (-0.038947129 -0.069704936 -0.13705773) to (15.109889 13.915975 18.459234) with tilt (-7.8096217 0.24996253 -0.1402209)
WARNING: Triclinic box skew is large. LAMMPS will run inefficiently. (src/domain.cpp:221)
  1 by 1 by 1 MPI processor grid
  restoring pair style lj/cut from restart
  restoring bond style harmonic from restart
  restoring angle style hybrid from restart
  restoring dihedral style harmonic from restart
  365 atoms
  390 bonds
  739 angles
  924 dihedrals
Finding 1-2 1-3 1-4 neighbors ...
  special bond factors lj:    0        0        1       
  special bond factors coul:  0        0        1       
     4 = max # of 1-2 neighbors
    10 = max # of 1-3 neighbors
    14 = max # of special neighbors
  special bonds CPU = 0.000 seconds
  read_restart CPU = 0.001 seconds
include ./input/angles_333U-50C-33-vasp.mod
angle_style hybrid fourier cosine/periodic
angle_coeff 1 fourier 114.246973        0.343737        0.374972        0.281246
angle_coeff 2 fourier 157.882480        0.343737        0.374972        0.281246
angle_coeff 3 fourier 221.735285        0.343737        0.374972        0.281246
angle_coeff 4 fourier 32.417871        0.343737        0.374972        0.281246
angle_coeff 5 fourier 83.380072        0.343737        0.374972        0.281246
angle_coeff 6 fourier 58.020602        0.343737        0.374972        0.281246
angle_coeff 7 fourier 90.420412        0.343737        0.374972        0.281246
angle_coeff 8 fourier 75.498766        0.343737        0.374972        0.281246
angle_coeff 9 cosine/periodic 88.853997              -1               3

# Negative deformation

variable delta equal -${up}*${len0}
variable delta equal -0.02*${len0}
variable delta equal -0.02*18.5962914553643
variable deltaxy equal -${up}*xy
variable deltaxy equal -0.02*xy
variable deltaxz equal -${up}*xz
variable deltaxz equal -0.02*xz
variable deltayz equal -${up}*yz
variable deltayz equal -0.02*yz
if "${dir} == 1" then    "change_box all x delta 0 ${delta} xy delta ${deltaxy} xz delta ${deltaxz} remap units box"
if "${dir} == 2" then    "change_box all y delta 0 ${delta} yz delta ${deltayz} remap units box"
if "${dir} == 3" then    "change_box all z delta 0 ${delta} remap units box"
change_box all z delta 0 ${delta} remap units box
change_box all z delta 0 -0.371925829107286 remap units box
Changing box ...
WARNING: Triclinic box skew is large. LAMMPS will run inefficiently. (src/domain.cpp:221)
  triclinic box = (-0.038947129 -0.069704936 -0.13705773) to (15.109889 13.915975 18.087308) with tilt (-7.8096217 0.24996253 -0.1402209)
if "${dir} == 4" then    "change_box all yz delta ${delta} remap units box"
if "${dir} == 5" then    "change_box all xz delta ${delta} remap units box"
if "${dir} == 6" then    "change_box all xy delta ${delta} remap units box"

# Relax atoms positions

minimize ${etol} ${ftol} ${maxiter} ${maxeval}
minimize 0 ${ftol} ${maxiter} ${maxeval}
minimize 0 1e-10 ${maxiter} ${maxeval}
minimize 0 1e-10 100000 ${maxeval}
minimize 0 1e-10 100000 100000
Generated 6 of 6 mixed pair_coeff terms from arithmetic mixing rule
Neighbor list info ...
  update: every = 1 steps, delay = 0 steps, check = yes
  max neighbors/atom: 2000, page size: 100000
  master list distance cutoff = 7
  ghost atom cutoff = 7
  binsize = 3.5, bins = 7 5 6
  1 neighbor lists, perpetual/occasional/extra = 1 0 0
  (1) pair lj/cut, perpetual
      attributes: half, newton on
      pair build: half/bin/newton/tri
      stencil: half/bin/3d/tri
      bin: standard
WARNING: Inconsistent image flags
For more information see https://docs.lammps.org/err0027 (src/domain.cpp:1052)
Per MPI rank memory allocation (min/avg/max) = 19.52 | 19.52 | 19.52 Mbytes
   Step          Temp          E_pair         E_mol          TotEng         Press     
    250311   286.77938     -430.69674      589.72642      470.18957      31239.639    
    250356   286.77938     -458.2142       458.6684       311.61409      9237.9761    
Loop time of 0.0888621 on 1 procs for 45 steps with 365 atoms

100.0% CPU use with 1 MPI tasks x 1 OpenMP threads

Minimization stats:
  Stopping criterion = linesearch alpha is zero
  Energy initial, next-to-last, final = 
      159.029687332946  0.454201480083441  0.454201480083441
  Force two-norm initial, final = 234.69568 10.906677
  Force max component initial, final = 26.142029 1.393523
  Final line search alpha, max atom move = 6.6832238e-11 9.3132257e-11
  Iterations, force evaluations = 45 355

MPI task timing breakdown:
Section |  min time  |  avg time  |  max time  |%varavg| %total
---------------------------------------------------------------
Pair    | 0.06848    | 0.06848    | 0.06848    |   0.0 | 77.06
Bond    | 0.017055   | 0.017055   | 0.017055   |   0.0 | 19.19
Neigh   | 0          | 0          | 0          |   0.0 |  0.00
Comm    | 0.0020339  | 0.0020339  | 0.0020339  |   0.0 |  2.29
Output  | 0          | 0          | 0          |   0.0 |  0.00
Modify  | 0          | 0          | 0          |   0.0 |  0.00
Other   |            | 0.001293   |            |       |  1.45

Nlocal:            365 ave         365 max         365 min
Histogram: 1 0 0 0 0 0 0 0 0 0
Nghost:           2313 ave        2313 max        2313 min
Histogram: 1 0 0 0 0 0 0 0 0 0
Neighs:          23485 ave       23485 max       23485 min
Histogram: 1 0 0 0 0 0 0 0 0 0

Total # of neighbors = 23485
Ave neighs/atom = 64.342466
Ave special neighs/atom = 6.1863014
Neighbor list builds = 0
Dangerous builds = 0

# Obtain new stress tensor

variable tmp equal pxx
variable pxx1 equal ${tmp}
variable pxx1 equal 3164.19848620836
variable tmp equal pyy
variable pyy1 equal ${tmp}
variable pyy1 equal 4056.97760690912
variable tmp equal pzz
variable pzz1 equal ${tmp}
variable pzz1 equal 20492.7520857014
variable tmp equal pxy
variable pxy1 equal ${tmp}
variable pxy1 equal -1803.1684547911
variable tmp equal pxz
variable pxz1 equal ${tmp}
variable pxz1 equal -6104.22805590787
variable tmp equal pyz
variable pyz1 equal ${tmp}
variable pyz1 equal 1308.98914372582

# Compute elastic constant from pressure tensor

variable C1neg equal ${d1}
variable C1neg equal -3.52749865751065
variable C2neg equal ${d2}
variable C2neg equal 1.0205089074623
variable C3neg equal ${d3}
variable C3neg equal 82.9333511710641
variable C4neg equal ${d4}
variable C4neg equal -3.77209467771515
variable C5neg equal ${d5}
variable C5neg equal 5.8244563787508
variable C6neg equal ${d6}
variable C6neg equal -19.6732973751402

# Reset box and simulation parameters

clear
OMP_NUM_THREADS environment is not set. Defaulting to 1 thread.
  using 1 OpenMP thread(s) per MPI task
box tilt large

The 'box' command has been removed and will be ignored

read_restart restart_333U-50C-33-vasp.equil
Reading restart file ...
  restart file = 10 Sep 2025, LAMMPS = 10 Sep 2025
  restoring atom style full from restart
  triclinic box = (-0.038947129 -0.069704936 -0.13705773) to (15.109889 13.915975 18.459234) with tilt (-7.8096217 0.24996253 -0.1402209)
WARNING: Triclinic box skew is large. LAMMPS will run inefficiently. (src/domain.cpp:221)
  1 by 1 by 1 MPI processor grid
  restoring pair style lj/cut from restart
  restoring bond style harmonic from restart
  restoring angle style hybrid from restart
  restoring dihedral style harmonic from restart
  365 atoms
  390 bonds
  739 angles
  924 dihedrals
Finding 1-2 1-3 1-4 neighbors ...
  special bond factors lj:    0        0        1       
  special bond factors coul:  0        0        1       
     4 = max # of 1-2 neighbors
    10 = max # of 1-3 neighbors
    14 = max # of special neighbors
  special bonds CPU = 0.000 seconds
  read_restart CPU = 0.001 seconds
include ./input/angles_333U-50C-33-vasp.mod
angle_style hybrid fourier cosine/periodic
angle_coeff 1 fourier 114.246973        0.343737        0.374972        0.281246
angle_coeff 2 fourier 157.882480        0.343737        0.374972        0.281246
angle_coeff 3 fourier 221.735285        0.343737        0.374972        0.281246
angle_coeff 4 fourier 32.417871        0.343737        0.374972        0.281246
angle_coeff 5 fourier 83.380072        0.343737        0.374972        0.281246
angle_coeff 6 fourier 58.020602        0.343737        0.374972        0.281246
angle_coeff 7 fourier 90.420412        0.343737        0.374972        0.281246
angle_coeff 8 fourier 75.498766        0.343737        0.374972        0.281246
angle_coeff 9 cosine/periodic 88.853997              -1               3

# Positive deformation

variable delta equal ${up}*${len0}
variable delta equal 0.02*${len0}
variable delta equal 0.02*18.5962914553643
variable deltaxy equal ${up}*xy
variable deltaxy equal 0.02*xy
variable deltaxz equal ${up}*xz
variable deltaxz equal 0.02*xz
variable deltayz equal ${up}*yz
variable deltayz equal 0.02*yz
if "${dir} == 1" then    "change_box all x delta 0 ${delta} xy delta ${deltaxy} xz delta ${deltaxz} remap units box"
if "${dir} == 2" then    "change_box all y delta 0 ${delta} yz delta ${deltayz} remap units box"
if "${dir} == 3" then    "change_box all z delta 0 ${delta} remap units box"
change_box all z delta 0 ${delta} remap units box
change_box all z delta 0 0.371925829107286 remap units box
Changing box ...
WARNING: Triclinic box skew is large. LAMMPS will run inefficiently. (src/domain.cpp:221)
  triclinic box = (-0.038947129 -0.069704936 -0.13705773) to (15.109889 13.915975 18.83116) with tilt (-7.8096217 0.24996253 -0.1402209)
if "${dir} == 4" then    "change_box all yz delta ${delta} remap units box"
if "${dir} == 5" then    "change_box all xz delta ${delta} remap units box"
if "${dir} == 6" then    "change_box all xy delta ${delta} remap units box"

# Relax atoms positions

minimize ${etol} ${ftol} ${maxiter} ${maxeval}
minimize 0 ${ftol} ${maxiter} ${maxeval}
minimize 0 1e-10 ${maxiter} ${maxeval}
minimize 0 1e-10 100000 ${maxeval}
minimize 0 1e-10 100000 100000
Generated 6 of 6 mixed pair_coeff terms from arithmetic mixing rule
Neighbor list info ...
  update: every = 1 steps, delay = 0 steps, check = yes
  max neighbors/atom: 2000, page size: 100000
  master list distance cutoff = 7
  ghost atom cutoff = 7
  binsize = 3.5, bins = 7 5 6
  1 neighbor lists, perpetual/occasional/extra = 1 0 0
  (1) pair lj/cut, perpetual
      attributes: half, newton on
      pair build: half/bin/newton/tri
      stencil: half/bin/3d/tri
      bin: standard
WARNING: Inconsistent image flags
For more information see https://docs.lammps.org/err0027 (src/domain.cpp:1052)
Per MPI rank memory allocation (min/avg/max) = 19.52 | 19.52 | 19.52 Mbytes
   Step          Temp          E_pair         E_mol          TotEng         Press     
    250311   286.77938     -474.85428      631.53282      467.83842     -22495.99     
    250365   286.77938     -488.83873      477.82569      300.14684     -7024.9203    
Loop time of 0.0415834 on 1 procs for 54 steps with 365 atoms

100.0% CPU use with 1 MPI tasks x 1 OpenMP threads

Minimization stats:
  Stopping criterion = linesearch alpha is zero
  Energy initial, next-to-last, final = 
      156.678534841474  -11.0130403030547  -11.0130403030547
  Force two-norm initial, final = 238.96024 16.874106
  Force max component initial, final = 27.871467 2.934639
  Final line search alpha, max atom move = 2.7026186e-11 7.9312098e-11
  Iterations, force evaluations = 54 168

MPI task timing breakdown:
Section |  min time  |  avg time  |  max time  |%varavg| %total
---------------------------------------------------------------
Pair    | 0.031672   | 0.031672   | 0.031672   |   0.0 | 76.17
Bond    | 0.0081482  | 0.0081482  | 0.0081482  |   0.0 | 19.59
Neigh   | 0          | 0          | 0          |   0.0 |  0.00
Comm    | 0.00097432 | 0.00097432 | 0.00097432 |   0.0 |  2.34
Output  | 0          | 0          | 0          |   0.0 |  0.00
Modify  | 0          | 0          | 0          |   0.0 |  0.00
Other   |            | 0.0007884  |            |       |  1.90

Nlocal:            365 ave         365 max         365 min
Histogram: 1 0 0 0 0 0 0 0 0 0
Nghost:           2275 ave        2275 max        2275 min
Histogram: 1 0 0 0 0 0 0 0 0 0
Neighs:          22545 ave       22545 max       22545 min
Histogram: 1 0 0 0 0 0 0 0 0 0

Total # of neighbors = 22545
Ave neighs/atom = 61.767123
Ave special neighs/atom = 6.1863014
Neighbor list builds = 0
Dangerous builds = 0

# Obtain new stress tensor

variable tmp equal pe
variable e1 equal ${tmp}
variable e1 equal -11.0130403030547
variable tmp equal press
variable p1 equal ${tmp}
variable p1 equal -7024.9202880199
variable tmp equal pxx
variable pxx1 equal ${tmp}
variable pxx1 equal -5932.7020863636
variable tmp equal pyy
variable pyy1 equal ${tmp}
variable pyy1 equal -7789.85743052967
variable tmp equal pzz
variable pzz1 equal ${tmp}
variable pzz1 equal -7352.20134716645
variable tmp equal pxy
variable pxy1 equal ${tmp}
variable pxy1 equal -317.254853169332
variable tmp equal pxz
variable pxz1 equal ${tmp}
variable pxz1 equal -6397.50649706656
variable tmp equal pyz
variable pyz1 equal ${tmp}
variable pyz1 equal 56.7918283806731

# Compute elastic constant from pressure tensor

variable C1pos equal ${d1}
variable C1pos equal 49.0120015203705
variable C2pos equal ${d2}
variable C2pos equal 58.2136662797317
variable C3pos equal ${d3}
variable C3pos equal 56.2914159932752
variable C4pos equal ${d4}
variable C4pos equal 10.0330812544409
variable C5pos equal ${d5}
variable C5pos equal -4.35806417295735
variable C6pos equal ${d6}
variable C6pos equal 12.2437293670313

# Combine positive and negative

variable C1${dir} equal 0.5*(${C1neg}+${C1pos})
variable C13 equal 0.5*(${C1neg}+${C1pos})
variable C13 equal 0.5*(-3.52749865751065+${C1pos})
variable C13 equal 0.5*(-3.52749865751065+49.0120015203705)
variable C2${dir} equal 0.5*(${C2neg}+${C2pos})
variable C23 equal 0.5*(${C2neg}+${C2pos})
variable C23 equal 0.5*(1.0205089074623+${C2pos})
variable C23 equal 0.5*(1.0205089074623+58.2136662797317)
variable C3${dir} equal 0.5*(${C3neg}+${C3pos})
variable C33 equal 0.5*(${C3neg}+${C3pos})
variable C33 equal 0.5*(82.9333511710641+${C3pos})
variable C33 equal 0.5*(82.9333511710641+56.2914159932752)
variable C4${dir} equal 0.5*(${C4neg}+${C4pos})
variable C43 equal 0.5*(${C4neg}+${C4pos})
variable C43 equal 0.5*(-3.77209467771515+${C4pos})
variable C43 equal 0.5*(-3.77209467771515+10.0330812544409)
variable C5${dir} equal 0.5*(${C5neg}+${C5pos})
variable C53 equal 0.5*(${C5neg}+${C5pos})
variable C53 equal 0.5*(5.8244563787508+${C5pos})
variable C53 equal 0.5*(5.8244563787508+-4.35806417295735)
variable C6${dir} equal 0.5*(${C6neg}+${C6pos})
variable C63 equal 0.5*(${C6neg}+${C6pos})
variable C63 equal 0.5*(-19.6732973751402+${C6pos})
variable C63 equal 0.5*(-19.6732973751402+12.2437293670313)

# Delete dir to make sure it is not reused

variable dir delete

# uyz Perturbation

variable dir equal 4
include ./input/displace_333U-50C-33-vasp.mod
if "${dir} == 1" then    "variable len0 equal ${lx0}"
if "${dir} == 2" then    "variable len0 equal ${ly0}"
if "${dir} == 3" then    "variable len0 equal ${lz0}"
if "${dir} == 4" then    "variable len0 equal ${lz0}"
variable len0 equal ${lz0}
variable len0 equal 18.5962914553643
if "${dir} == 5" then    "variable len0 equal ${lz0}"
if "${dir} == 6" then    "variable len0 equal ${ly0}"

# Reset box and simulation parameters

clear
OMP_NUM_THREADS environment is not set. Defaulting to 1 thread.
  using 1 OpenMP thread(s) per MPI task
box tilt large

The 'box' command has been removed and will be ignored

read_restart restart_333U-50C-33-vasp.equil
Reading restart file ...
  restart file = 10 Sep 2025, LAMMPS = 10 Sep 2025
  restoring atom style full from restart
  triclinic box = (-0.038947129 -0.069704936 -0.13705773) to (15.109889 13.915975 18.459234) with tilt (-7.8096217 0.24996253 -0.1402209)
WARNING: Triclinic box skew is large. LAMMPS will run inefficiently. (src/domain.cpp:221)
  1 by 1 by 1 MPI processor grid
  restoring pair style lj/cut from restart
  restoring bond style harmonic from restart
  restoring angle style hybrid from restart
  restoring dihedral style harmonic from restart
  365 atoms
  390 bonds
  739 angles
  924 dihedrals
Finding 1-2 1-3 1-4 neighbors ...
  special bond factors lj:    0        0        1       
  special bond factors coul:  0        0        1       
     4 = max # of 1-2 neighbors
    10 = max # of 1-3 neighbors
    14 = max # of special neighbors
  special bonds CPU = 0.000 seconds
  read_restart CPU = 0.001 seconds
include ./input/angles_333U-50C-33-vasp.mod
angle_style hybrid fourier cosine/periodic
angle_coeff 1 fourier 114.246973        0.343737        0.374972        0.281246
angle_coeff 2 fourier 157.882480        0.343737        0.374972        0.281246
angle_coeff 3 fourier 221.735285        0.343737        0.374972        0.281246
angle_coeff 4 fourier 32.417871        0.343737        0.374972        0.281246
angle_coeff 5 fourier 83.380072        0.343737        0.374972        0.281246
angle_coeff 6 fourier 58.020602        0.343737        0.374972        0.281246
angle_coeff 7 fourier 90.420412        0.343737        0.374972        0.281246
angle_coeff 8 fourier 75.498766        0.343737        0.374972        0.281246
angle_coeff 9 cosine/periodic 88.853997              -1               3

# Negative deformation

variable delta equal -${up}*${len0}
variable delta equal -0.02*${len0}
variable delta equal -0.02*18.5962914553643
variable deltaxy equal -${up}*xy
variable deltaxy equal -0.02*xy
variable deltaxz equal -${up}*xz
variable deltaxz equal -0.02*xz
variable deltayz equal -${up}*yz
variable deltayz equal -0.02*yz
if "${dir} == 1" then    "change_box all x delta 0 ${delta} xy delta ${deltaxy} xz delta ${deltaxz} remap units box"
if "${dir} == 2" then    "change_box all y delta 0 ${delta} yz delta ${deltayz} remap units box"
if "${dir} == 3" then    "change_box all z delta 0 ${delta} remap units box"
if "${dir} == 4" then    "change_box all yz delta ${delta} remap units box"
change_box all yz delta ${delta} remap units box
change_box all yz delta -0.371925829107286 remap units box
Changing box ...
WARNING: Triclinic box skew is large. LAMMPS will run inefficiently. (src/domain.cpp:221)
  triclinic box = (-0.038947129 -0.069704936 -0.13705773) to (15.109889 13.915975 18.459234) with tilt (-7.8096217 0.24996253 -0.51214673)
if "${dir} == 5" then    "change_box all xz delta ${delta} remap units box"
if "${dir} == 6" then    "change_box all xy delta ${delta} remap units box"

# Relax atoms positions

minimize ${etol} ${ftol} ${maxiter} ${maxeval}
minimize 0 ${ftol} ${maxiter} ${maxeval}
minimize 0 1e-10 ${maxiter} ${maxeval}
minimize 0 1e-10 100000 ${maxeval}
minimize 0 1e-10 100000 100000
Generated 6 of 6 mixed pair_coeff terms from arithmetic mixing rule
Neighbor list info ...
  update: every = 1 steps, delay = 0 steps, check = yes
  max neighbors/atom: 2000, page size: 100000
  master list distance cutoff = 7
  ghost atom cutoff = 7
  binsize = 3.5, bins = 7 5 6
  1 neighbor lists, perpetual/occasional/extra = 1 0 0
  (1) pair lj/cut, perpetual
      attributes: half, newton on
      pair build: half/bin/newton/tri
      stencil: half/bin/3d/tri
      bin: standard
WARNING: Inconsistent image flags
For more information see https://docs.lammps.org/err0027 (src/domain.cpp:1052)
Per MPI rank memory allocation (min/avg/max) = 19.52 | 19.52 | 19.52 Mbytes
   Step          Temp          E_pair         E_mol          TotEng         Press     
    250311   286.77938     -454.8636       595.66149      451.95777      4457.4405    
    250356   286.77938     -479.24384      468.8091       300.72514      446.18101    
Loop time of 0.0396042 on 1 procs for 45 steps with 365 atoms

100.0% CPU use with 1 MPI tasks x 1 OpenMP threads

Minimization stats:
  Stopping criterion = linesearch alpha is zero
  Energy initial, next-to-last, final = 
      140.797890552202    -10.43473873685    -10.43473873685
  Force two-norm initial, final = 205.05103 18.508578
  Force max component initial, final = 20.142744 2.0831475
  Final line search alpha, max atom move = 3.1265601e-11 6.513086e-11
  Iterations, force evaluations = 45 160

MPI task timing breakdown:
Section |  min time  |  avg time  |  max time  |%varavg| %total
---------------------------------------------------------------
Pair    | 0.030301   | 0.030301   | 0.030301   |   0.0 | 76.51
Bond    | 0.0077119  | 0.0077119  | 0.0077119  |   0.0 | 19.47
Neigh   | 0          | 0          | 0          |   0.0 |  0.00
Comm    | 0.00090381 | 0.00090381 | 0.00090381 |   0.0 |  2.28
Output  | 0          | 0          | 0          |   0.0 |  0.00
Modify  | 0          | 0          | 0          |   0.0 |  0.00
Other   |            | 0.0006871  |            |       |  1.73

Nlocal:            365 ave         365 max         365 min
Histogram: 1 0 0 0 0 0 0 0 0 0
Nghost:           2309 ave        2309 max        2309 min
Histogram: 1 0 0 0 0 0 0 0 0 0
Neighs:          23009 ave       23009 max       23009 min
Histogram: 1 0 0 0 0 0 0 0 0 0

Total # of neighbors = 23009
Ave neighs/atom = 63.038356
Ave special neighs/atom = 6.1863014
Neighbor list builds = 0
Dangerous builds = 0

# Obtain new stress tensor

variable tmp equal pxx
variable pxx1 equal ${tmp}
variable pxx1 equal -2126.37017754939
variable tmp equal pyy
variable pyy1 equal ${tmp}
variable pyy1 equal -2413.08349717981
variable tmp equal pzz
variable pzz1 equal ${tmp}
variable pzz1 equal 5877.99669308701
variable tmp equal pxy
variable pxy1 equal ${tmp}
variable pxy1 equal -896.51491519897
variable tmp equal pxz
variable pxz1 equal ${tmp}
variable pxz1 equal -6790.65222213278
variable tmp equal pyz
variable pyz1 equal ${tmp}
variable pyz1 equal 6436.98719533448

# Compute elastic constant from pressure tensor

variable C1neg equal ${d1}
variable C1neg equal -29.9803419762994
variable C2neg equal ${d2}
variable C2neg equal -31.3297966129824
variable C3neg equal ${d3}
variable C3neg equal 9.8595742079921
variable C4neg equal ${d4}
variable C4neg equal 21.8678955803282
variable C5neg equal ${d5}
variable C5neg equal 2.39233554762625
variable C6neg equal ${d6}
variable C6neg equal -15.1400296771795

# Reset box and simulation parameters

clear
OMP_NUM_THREADS environment is not set. Defaulting to 1 thread.
  using 1 OpenMP thread(s) per MPI task
box tilt large

The 'box' command has been removed and will be ignored

read_restart restart_333U-50C-33-vasp.equil
Reading restart file ...
  restart file = 10 Sep 2025, LAMMPS = 10 Sep 2025
  restoring atom style full from restart
  triclinic box = (-0.038947129 -0.069704936 -0.13705773) to (15.109889 13.915975 18.459234) with tilt (-7.8096217 0.24996253 -0.1402209)
WARNING: Triclinic box skew is large. LAMMPS will run inefficiently. (src/domain.cpp:221)
  1 by 1 by 1 MPI processor grid
  restoring pair style lj/cut from restart
  restoring bond style harmonic from restart
  restoring angle style hybrid from restart
  restoring dihedral style harmonic from restart
  365 atoms
  390 bonds
  739 angles
  924 dihedrals
Finding 1-2 1-3 1-4 neighbors ...
  special bond factors lj:    0        0        1       
  special bond factors coul:  0        0        1       
     4 = max # of 1-2 neighbors
    10 = max # of 1-3 neighbors
    14 = max # of special neighbors
  special bonds CPU = 0.000 seconds
  read_restart CPU = 0.001 seconds
include ./input/angles_333U-50C-33-vasp.mod
angle_style hybrid fourier cosine/periodic
angle_coeff 1 fourier 114.246973        0.343737        0.374972        0.281246
angle_coeff 2 fourier 157.882480        0.343737        0.374972        0.281246
angle_coeff 3 fourier 221.735285        0.343737        0.374972        0.281246
angle_coeff 4 fourier 32.417871        0.343737        0.374972        0.281246
angle_coeff 5 fourier 83.380072        0.343737        0.374972        0.281246
angle_coeff 6 fourier 58.020602        0.343737        0.374972        0.281246
angle_coeff 7 fourier 90.420412        0.343737        0.374972        0.281246
angle_coeff 8 fourier 75.498766        0.343737        0.374972        0.281246
angle_coeff 9 cosine/periodic 88.853997              -1               3

# Positive deformation

variable delta equal ${up}*${len0}
variable delta equal 0.02*${len0}
variable delta equal 0.02*18.5962914553643
variable deltaxy equal ${up}*xy
variable deltaxy equal 0.02*xy
variable deltaxz equal ${up}*xz
variable deltaxz equal 0.02*xz
variable deltayz equal ${up}*yz
variable deltayz equal 0.02*yz
if "${dir} == 1" then    "change_box all x delta 0 ${delta} xy delta ${deltaxy} xz delta ${deltaxz} remap units box"
if "${dir} == 2" then    "change_box all y delta 0 ${delta} yz delta ${deltayz} remap units box"
if "${dir} == 3" then    "change_box all z delta 0 ${delta} remap units box"
if "${dir} == 4" then    "change_box all yz delta ${delta} remap units box"
change_box all yz delta ${delta} remap units box
change_box all yz delta 0.371925829107286 remap units box
Changing box ...
WARNING: Triclinic box skew is large. LAMMPS will run inefficiently. (src/domain.cpp:221)
  triclinic box = (-0.038947129 -0.069704936 -0.13705773) to (15.109889 13.915975 18.459234) with tilt (-7.8096217 0.24996253 0.23170493)
if "${dir} == 5" then    "change_box all xz delta ${delta} remap units box"
if "${dir} == 6" then    "change_box all xy delta ${delta} remap units box"

# Relax atoms positions

minimize ${etol} ${ftol} ${maxiter} ${maxeval}
minimize 0 ${ftol} ${maxiter} ${maxeval}
minimize 0 1e-10 ${maxiter} ${maxeval}
minimize 0 1e-10 100000 ${maxeval}
minimize 0 1e-10 100000 100000
Generated 6 of 6 mixed pair_coeff terms from arithmetic mixing rule
Neighbor list info ...
  update: every = 1 steps, delay = 0 steps, check = yes
  max neighbors/atom: 2000, page size: 100000
  master list distance cutoff = 7
  ghost atom cutoff = 7
  binsize = 3.5, bins = 7 5 6
  1 neighbor lists, perpetual/occasional/extra = 1 0 0
  (1) pair lj/cut, perpetual
      attributes: half, newton on
      pair build: half/bin/newton/tri
      stencil: half/bin/3d/tri
      bin: standard
WARNING: Inconsistent image flags
For more information see https://docs.lammps.org/err0027 (src/domain.cpp:1052)
Per MPI rank memory allocation (min/avg/max) = 19.52 | 19.52 | 19.52 Mbytes
   Step          Temp          E_pair         E_mol          TotEng         Press     
    250311   286.77938     -456.81307      592.9287       447.27551      2876.746     
    250353   286.77938     -476.34782      466.33588      301.14794     -320.54063    
Loop time of 0.0364705 on 1 procs for 42 steps with 365 atoms

100.0% CPU use with 1 MPI tasks x 1 OpenMP threads

Minimization stats:
  Stopping criterion = linesearch alpha is zero
  Energy initial, next-to-last, final = 
      136.115630404253  -10.0119408137339  -10.0119408137339
  Force two-norm initial, final = 202.6424 20.655378
  Force max component initial, final = 23.1205 3.7613865
  Final line search alpha, max atom move = 2.2835143e-11 8.5891798e-11
  Iterations, force evaluations = 42 147

MPI task timing breakdown:
Section |  min time  |  avg time  |  max time  |%varavg| %total
---------------------------------------------------------------
Pair    | 0.02793    | 0.02793    | 0.02793    |   0.0 | 76.58
Bond    | 0.0070354  | 0.0070354  | 0.0070354  |   0.0 | 19.29
Neigh   | 0          | 0          | 0          |   0.0 |  0.00
Comm    | 0.00084126 | 0.00084126 | 0.00084126 |   0.0 |  2.31
Output  | 0          | 0          | 0          |   0.0 |  0.00
Modify  | 0          | 0          | 0          |   0.0 |  0.00
Other   |            | 0.0006637  |            |       |  1.82

Nlocal:            365 ave         365 max         365 min
Histogram: 1 0 0 0 0 0 0 0 0 0
Nghost:           2309 ave        2309 max        2309 min
Histogram: 1 0 0 0 0 0 0 0 0 0
Neighs:          23000 ave       23000 max       23000 min
Histogram: 1 0 0 0 0 0 0 0 0 0

Total # of neighbors = 23000
Ave neighs/atom = 63.013699
Ave special neighs/atom = 6.1863014
Neighbor list builds = 0
Dangerous builds = 0

# Obtain new stress tensor

variable tmp equal pe
variable e1 equal ${tmp}
variable e1 equal -10.0119408137339
variable tmp equal press
variable p1 equal ${tmp}
variable p1 equal -320.540629095647
variable tmp equal pxx
variable pxx1 equal ${tmp}
variable pxx1 equal -2259.64249703579
variable tmp equal pyy
variable pyy1 equal ${tmp}
variable pyy1 equal -3121.49564067845
variable tmp equal pzz
variable pzz1 equal ${tmp}
variable pzz1 equal 4419.5162504273
variable tmp equal pxy
variable pxy1 equal ${tmp}
variable pxy1 equal -1641.28854287882
variable tmp equal pxz
variable pxz1 equal ${tmp}
variable pxz1 equal -6176.55117658861
variable tmp equal pyz
variable pyz1 equal ${tmp}
variable pyz1 equal -4143.51339744247

# Compute elastic constant from pressure tensor

variable C1pos equal ${d1}
variable C1pos equal 30.6467035737314
variable C2pos equal ${d2}
variable C2pos equal 34.8718573304756
variable C3pos equal ${d3}
variable C3pos equal -2.56717199469355
variable C4pos equal ${d4}
variable C4pos equal 31.0346073835566
variable C5pos equal ${d5}
variable C5pos equal -5.4628407753471
variable C6pos equal ${d6}
variable C6pos equal 18.8638978155788

# Combine positive and negative

variable C1${dir} equal 0.5*(${C1neg}+${C1pos})
variable C14 equal 0.5*(${C1neg}+${C1pos})
variable C14 equal 0.5*(-29.9803419762994+${C1pos})
variable C14 equal 0.5*(-29.9803419762994+30.6467035737314)
variable C2${dir} equal 0.5*(${C2neg}+${C2pos})
variable C24 equal 0.5*(${C2neg}+${C2pos})
variable C24 equal 0.5*(-31.3297966129824+${C2pos})
variable C24 equal 0.5*(-31.3297966129824+34.8718573304756)
variable C3${dir} equal 0.5*(${C3neg}+${C3pos})
variable C34 equal 0.5*(${C3neg}+${C3pos})
variable C34 equal 0.5*(9.8595742079921+${C3pos})
variable C34 equal 0.5*(9.8595742079921+-2.56717199469355)
variable C4${dir} equal 0.5*(${C4neg}+${C4pos})
variable C44 equal 0.5*(${C4neg}+${C4pos})
variable C44 equal 0.5*(21.8678955803282+${C4pos})
variable C44 equal 0.5*(21.8678955803282+31.0346073835566)
variable C5${dir} equal 0.5*(${C5neg}+${C5pos})
variable C54 equal 0.5*(${C5neg}+${C5pos})
variable C54 equal 0.5*(2.39233554762625+${C5pos})
variable C54 equal 0.5*(2.39233554762625+-5.4628407753471)
variable C6${dir} equal 0.5*(${C6neg}+${C6pos})
variable C64 equal 0.5*(${C6neg}+${C6pos})
variable C64 equal 0.5*(-15.1400296771795+${C6pos})
variable C64 equal 0.5*(-15.1400296771795+18.8638978155788)

# Delete dir to make sure it is not reused

variable dir delete

# uxz Perturbation

variable dir equal 5
include ./input/displace_333U-50C-33-vasp.mod
if "${dir} == 1" then    "variable len0 equal ${lx0}"
if "${dir} == 2" then    "variable len0 equal ${ly0}"
if "${dir} == 3" then    "variable len0 equal ${lz0}"
if "${dir} == 4" then    "variable len0 equal ${lz0}"
if "${dir} == 5" then    "variable len0 equal ${lz0}"
variable len0 equal ${lz0}
variable len0 equal 18.5962914553643
if "${dir} == 6" then    "variable len0 equal ${ly0}"

# Reset box and simulation parameters

clear
OMP_NUM_THREADS environment is not set. Defaulting to 1 thread.
  using 1 OpenMP thread(s) per MPI task
box tilt large

The 'box' command has been removed and will be ignored

read_restart restart_333U-50C-33-vasp.equil
Reading restart file ...
  restart file = 10 Sep 2025, LAMMPS = 10 Sep 2025
  restoring atom style full from restart
  triclinic box = (-0.038947129 -0.069704936 -0.13705773) to (15.109889 13.915975 18.459234) with tilt (-7.8096217 0.24996253 -0.1402209)
WARNING: Triclinic box skew is large. LAMMPS will run inefficiently. (src/domain.cpp:221)
  1 by 1 by 1 MPI processor grid
  restoring pair style lj/cut from restart
  restoring bond style harmonic from restart
  restoring angle style hybrid from restart
  restoring dihedral style harmonic from restart
  365 atoms
  390 bonds
  739 angles
  924 dihedrals
Finding 1-2 1-3 1-4 neighbors ...
  special bond factors lj:    0        0        1       
  special bond factors coul:  0        0        1       
     4 = max # of 1-2 neighbors
    10 = max # of 1-3 neighbors
    14 = max # of special neighbors
  special bonds CPU = 0.000 seconds
  read_restart CPU = 0.001 seconds
include ./input/angles_333U-50C-33-vasp.mod
angle_style hybrid fourier cosine/periodic
angle_coeff 1 fourier 114.246973        0.343737        0.374972        0.281246
angle_coeff 2 fourier 157.882480        0.343737        0.374972        0.281246
angle_coeff 3 fourier 221.735285        0.343737        0.374972        0.281246
angle_coeff 4 fourier 32.417871        0.343737        0.374972        0.281246
angle_coeff 5 fourier 83.380072        0.343737        0.374972        0.281246
angle_coeff 6 fourier 58.020602        0.343737        0.374972        0.281246
angle_coeff 7 fourier 90.420412        0.343737        0.374972        0.281246
angle_coeff 8 fourier 75.498766        0.343737        0.374972        0.281246
angle_coeff 9 cosine/periodic 88.853997              -1               3

# Negative deformation

variable delta equal -${up}*${len0}
variable delta equal -0.02*${len0}
variable delta equal -0.02*18.5962914553643
variable deltaxy equal -${up}*xy
variable deltaxy equal -0.02*xy
variable deltaxz equal -${up}*xz
variable deltaxz equal -0.02*xz
variable deltayz equal -${up}*yz
variable deltayz equal -0.02*yz
if "${dir} == 1" then    "change_box all x delta 0 ${delta} xy delta ${deltaxy} xz delta ${deltaxz} remap units box"
if "${dir} == 2" then    "change_box all y delta 0 ${delta} yz delta ${deltayz} remap units box"
if "${dir} == 3" then    "change_box all z delta 0 ${delta} remap units box"
if "${dir} == 4" then    "change_box all yz delta ${delta} remap units box"
if "${dir} == 5" then    "change_box all xz delta ${delta} remap units box"
change_box all xz delta ${delta} remap units box
change_box all xz delta -0.371925829107286 remap units box
Changing box ...
WARNING: Triclinic box skew is large. LAMMPS will run inefficiently. (src/domain.cpp:221)
  triclinic box = (-0.038947129 -0.069704936 -0.13705773) to (15.109889 13.915975 18.459234) with tilt (-7.8096217 -0.1219633 -0.1402209)
if "${dir} == 6" then    "change_box all xy delta ${delta} remap units box"

# Relax atoms positions

minimize ${etol} ${ftol} ${maxiter} ${maxeval}
minimize 0 ${ftol} ${maxiter} ${maxeval}
minimize 0 1e-10 ${maxiter} ${maxeval}
minimize 0 1e-10 100000 ${maxeval}
minimize 0 1e-10 100000 100000
Generated 6 of 6 mixed pair_coeff terms from arithmetic mixing rule
Neighbor list info ...
  update: every = 1 steps, delay = 0 steps, check = yes
  max neighbors/atom: 2000, page size: 100000
  master list distance cutoff = 7
  ghost atom cutoff = 7
  binsize = 3.5, bins = 7 5 6
  1 neighbor lists, perpetual/occasional/extra = 1 0 0
  (1) pair lj/cut, perpetual
      attributes: half, newton on
      pair build: half/bin/newton/tri
      stencil: half/bin/3d/tri
      bin: standard
WARNING: Inconsistent image flags
For more information see https://docs.lammps.org/err0027 (src/domain.cpp:1052)
Per MPI rank memory allocation (min/avg/max) = 19.52 | 19.52 | 19.52 Mbytes
   Step          Temp          E_pair         E_mol          TotEng         Press     
    250311   286.77938     -458.69272      588.90265      441.36981      3491.282     
    250370   286.77938     -476.53077      454.74912      289.37823      597.23501    
Loop time of 0.0443368 on 1 procs for 59 steps with 365 atoms

100.0% CPU use with 1 MPI tasks x 1 OpenMP threads

Minimization stats:
  Stopping criterion = linesearch alpha is zero
  Energy initial, next-to-last, final = 
      130.209926034944  -21.7816493537564  -21.7816493537564
  Force two-norm initial, final = 203.09056 11.495867
  Force max component initial, final = 20.46695 2.2483504
  Final line search alpha, max atom move = 7.7993924e-11 1.7535767e-10
  Iterations, force evaluations = 59 177

MPI task timing breakdown:
Section |  min time  |  avg time  |  max time  |%varavg| %total
---------------------------------------------------------------
Pair    | 0.033983   | 0.033983   | 0.033983   |   0.0 | 76.65
Bond    | 0.0085008  | 0.0085008  | 0.0085008  |   0.0 | 19.17
Neigh   | 0          | 0          | 0          |   0.0 |  0.00
Comm    | 0.0010062  | 0.0010062  | 0.0010062  |   0.0 |  2.27
Output  | 0          | 0          | 0          |   0.0 |  0.00
Modify  | 0          | 0          | 0          |   0.0 |  0.00
Other   |            | 0.0008469  |            |       |  1.91

Nlocal:            365 ave         365 max         365 min
Histogram: 1 0 0 0 0 0 0 0 0 0
Nghost:           2309 ave        2309 max        2309 min
Histogram: 1 0 0 0 0 0 0 0 0 0
Neighs:          23033 ave       23033 max       23033 min
Histogram: 1 0 0 0 0 0 0 0 0 0

Total # of neighbors = 23033
Ave neighs/atom = 63.10411
Ave special neighs/atom = 6.1863014
Neighbor list builds = 0
Dangerous builds = 0

# Obtain new stress tensor

variable tmp equal pxx
variable pxx1 equal ${tmp}
variable pxx1 equal -1852.9714737743
variable tmp equal pyy
variable pyy1 equal ${tmp}
variable pyy1 equal -2350.97820332631
variable tmp equal pzz
variable pzz1 equal ${tmp}
variable pzz1 equal 5995.65470009525
variable tmp equal pxy
variable pxy1 equal ${tmp}
variable pxy1 equal -884.677237904582
variable tmp equal pxz
variable pxz1 equal ${tmp}
variable pxz1 equal -2285.21233260851
variable tmp equal pyz
variable pyz1 equal ${tmp}
variable pyz1 equal 681.608342414977

# Compute elastic constant from pressure tensor

variable C1neg equal ${d1}
variable C1neg equal -28.613348457424
variable C2neg equal ${d2}
variable C2neg equal -31.0192701437149
variable C3neg equal ${d3}
variable C3neg equal 10.4478642430333
variable C4neg equal ${d4}
variable C4neg equal -6.90899868426937
variable C5neg equal ${d5}
variable C5neg equal 24.9195349952476
variable C6neg equal ${d6}
variable C6neg equal -15.0808412907076

# Reset box and simulation parameters

clear
OMP_NUM_THREADS environment is not set. Defaulting to 1 thread.
  using 1 OpenMP thread(s) per MPI task
box tilt large

The 'box' command has been removed and will be ignored

read_restart restart_333U-50C-33-vasp.equil
Reading restart file ...
  restart file = 10 Sep 2025, LAMMPS = 10 Sep 2025
  restoring atom style full from restart
  triclinic box = (-0.038947129 -0.069704936 -0.13705773) to (15.109889 13.915975 18.459234) with tilt (-7.8096217 0.24996253 -0.1402209)
WARNING: Triclinic box skew is large. LAMMPS will run inefficiently. (src/domain.cpp:221)
  1 by 1 by 1 MPI processor grid
  restoring pair style lj/cut from restart
  restoring bond style harmonic from restart
  restoring angle style hybrid from restart
  restoring dihedral style harmonic from restart
  365 atoms
  390 bonds
  739 angles
  924 dihedrals
Finding 1-2 1-3 1-4 neighbors ...
  special bond factors lj:    0        0        1       
  special bond factors coul:  0        0        1       
     4 = max # of 1-2 neighbors
    10 = max # of 1-3 neighbors
    14 = max # of special neighbors
  special bonds CPU = 0.000 seconds
  read_restart CPU = 0.001 seconds
include ./input/angles_333U-50C-33-vasp.mod
angle_style hybrid fourier cosine/periodic
angle_coeff 1 fourier 114.246973        0.343737        0.374972        0.281246
angle_coeff 2 fourier 157.882480        0.343737        0.374972        0.281246
angle_coeff 3 fourier 221.735285        0.343737        0.374972        0.281246
angle_coeff 4 fourier 32.417871        0.343737        0.374972        0.281246
angle_coeff 5 fourier 83.380072        0.343737        0.374972        0.281246
angle_coeff 6 fourier 58.020602        0.343737        0.374972        0.281246
angle_coeff 7 fourier 90.420412        0.343737        0.374972        0.281246
angle_coeff 8 fourier 75.498766        0.343737        0.374972        0.281246
angle_coeff 9 cosine/periodic 88.853997              -1               3

# Positive deformation

variable delta equal ${up}*${len0}
variable delta equal 0.02*${len0}
variable delta equal 0.02*18.5962914553643
variable deltaxy equal ${up}*xy
variable deltaxy equal 0.02*xy
variable deltaxz equal ${up}*xz
variable deltaxz equal 0.02*xz
variable deltayz equal ${up}*yz
variable deltayz equal 0.02*yz
if "${dir} == 1" then    "change_box all x delta 0 ${delta} xy delta ${deltaxy} xz delta ${deltaxz} remap units box"
if "${dir} == 2" then    "change_box all y delta 0 ${delta} yz delta ${deltayz} remap units box"
if "${dir} == 3" then    "change_box all z delta 0 ${delta} remap units box"
if "${dir} == 4" then    "change_box all yz delta ${delta} remap units box"
if "${dir} == 5" then    "change_box all xz delta ${delta} remap units box"
change_box all xz delta ${delta} remap units box
change_box all xz delta 0.371925829107286 remap units box
Changing box ...
WARNING: Triclinic box skew is large. LAMMPS will run inefficiently. (src/domain.cpp:221)
  triclinic box = (-0.038947129 -0.069704936 -0.13705773) to (15.109889 13.915975 18.459234) with tilt (-7.8096217 0.62188836 -0.1402209)
if "${dir} == 6" then    "change_box all xy delta ${delta} remap units box"

# Relax atoms positions

minimize ${etol} ${ftol} ${maxiter} ${maxeval}
minimize 0 ${ftol} ${maxiter} ${maxeval}
minimize 0 1e-10 ${maxiter} ${maxeval}
minimize 0 1e-10 100000 ${maxeval}
minimize 0 1e-10 100000 100000
Generated 6 of 6 mixed pair_coeff terms from arithmetic mixing rule
Neighbor list info ...
  update: every = 1 steps, delay = 0 steps, check = yes
  max neighbors/atom: 2000, page size: 100000
  master list distance cutoff = 7
  ghost atom cutoff = 7
  binsize = 3.5, bins = 7 5 6
  1 neighbor lists, perpetual/occasional/extra = 1 0 0
  (1) pair lj/cut, perpetual
      attributes: half, newton on
      pair build: half/bin/newton/tri
      stencil: half/bin/3d/tri
      bin: standard
WARNING: Inconsistent image flags
For more information see https://docs.lammps.org/err0027 (src/domain.cpp:1052)
Per MPI rank memory allocation (min/avg/max) = 19.52 | 19.52 | 19.52 Mbytes
   Step          Temp          E_pair         E_mol          TotEng         Press     
    250311   286.77938     -451.56776      599.34584      458.93796      3883.086     
    250356   286.77938     -476.21661      471.14171      306.08498      76.418653    
Loop time of 0.0385286 on 1 procs for 45 steps with 365 atoms

100.0% CPU use with 1 MPI tasks x 1 OpenMP threads

Minimization stats:
  Stopping criterion = linesearch alpha is zero
  Energy initial, next-to-last, final = 
      147.778079890343    -5.074903741068    -5.074903741068
  Force two-norm initial, final = 198.06406 16.343448
  Force max component initial, final = 19.577264 2.099497
  Final line search alpha, max atom move = 3.4660393e-11 7.2769392e-11
  Iterations, force evaluations = 45 155

MPI task timing breakdown:
Section |  min time  |  avg time  |  max time  |%varavg| %total
---------------------------------------------------------------
Pair    | 0.029544   | 0.029544   | 0.029544   |   0.0 | 76.68
Bond    | 0.0074256  | 0.0074256  | 0.0074256  |   0.0 | 19.27
Neigh   | 0          | 0          | 0          |   0.0 |  0.00
Comm    | 0.00087185 | 0.00087185 | 0.00087185 |   0.0 |  2.26
Output  | 0          | 0          | 0          |   0.0 |  0.00
Modify  | 0          | 0          | 0          |   0.0 |  0.00
Other   |            | 0.0006876  |            |       |  1.78

Nlocal:            365 ave         365 max         365 min
Histogram: 1 0 0 0 0 0 0 0 0 0
Nghost:           2309 ave        2309 max        2309 min
Histogram: 1 0 0 0 0 0 0 0 0 0
Neighs:          23020 ave       23020 max       23020 min
Histogram: 1 0 0 0 0 0 0 0 0 0

Total # of neighbors = 23020
Ave neighs/atom = 63.068493
Ave special neighs/atom = 6.1863014
Neighbor list builds = 0
Dangerous builds = 0

# Obtain new stress tensor

variable tmp equal pe
variable e1 equal ${tmp}
variable e1 equal -5.074903741068
variable tmp equal press
variable p1 equal ${tmp}
variable p1 equal 76.4186526109836
variable tmp equal pxx
variable pxx1 equal ${tmp}
variable pxx1 equal -1824.99973291615
variable tmp equal pyy
variable pyy1 equal ${tmp}
variable pyy1 equal -2793.22133837228
variable tmp equal pzz
variable pzz1 equal ${tmp}
variable pzz1 equal 4847.47702912138
variable tmp equal pxy
variable pxy1 equal ${tmp}
variable pxy1 equal -1564.29773674163
variable tmp equal pxz
variable pxz1 equal ${tmp}
variable pxz1 equal -10699.7803165703
variable tmp equal pyz
variable pyz1 equal ${tmp}
variable pyz1 equal 1391.1198804417

# Compute elastic constant from pressure tensor

variable C1pos equal ${d1}
variable C1pos equal 28.4734897531332
variable C2pos equal ${d2}
variable C2pos equal 33.2304858189447
variable C3pos equal ${d3}
variable C3pos equal -4.70697588816395
variable C4pos equal ${d4}
variable C4pos equal 3.36144099413575
variable C5pos equal ${d5}
variable C5pos equal 17.1533049245614
variable C6pos equal ${d6}
variable C6pos equal 18.4789437848928

# Combine positive and negative

variable C1${dir} equal 0.5*(${C1neg}+${C1pos})
variable C15 equal 0.5*(${C1neg}+${C1pos})
variable C15 equal 0.5*(-28.613348457424+${C1pos})
variable C15 equal 0.5*(-28.613348457424+28.4734897531332)
variable C2${dir} equal 0.5*(${C2neg}+${C2pos})
variable C25 equal 0.5*(${C2neg}+${C2pos})
variable C25 equal 0.5*(-31.0192701437149+${C2pos})
variable C25 equal 0.5*(-31.0192701437149+33.2304858189447)
variable C3${dir} equal 0.5*(${C3neg}+${C3pos})
variable C35 equal 0.5*(${C3neg}+${C3pos})
variable C35 equal 0.5*(10.4478642430333+${C3pos})
variable C35 equal 0.5*(10.4478642430333+-4.70697588816395)
variable C4${dir} equal 0.5*(${C4neg}+${C4pos})
variable C45 equal 0.5*(${C4neg}+${C4pos})
variable C45 equal 0.5*(-6.90899868426937+${C4pos})
variable C45 equal 0.5*(-6.90899868426937+3.36144099413575)
variable C5${dir} equal 0.5*(${C5neg}+${C5pos})
variable C55 equal 0.5*(${C5neg}+${C5pos})
variable C55 equal 0.5*(24.9195349952476+${C5pos})
variable C55 equal 0.5*(24.9195349952476+17.1533049245614)
variable C6${dir} equal 0.5*(${C6neg}+${C6pos})
variable C65 equal 0.5*(${C6neg}+${C6pos})
variable C65 equal 0.5*(-15.0808412907076+${C6pos})
variable C65 equal 0.5*(-15.0808412907076+18.4789437848928)

# Delete dir to make sure it is not reused

variable dir delete

# uxy Perturbation

variable dir equal 6
include ./input/displace_333U-50C-33-vasp.mod
if "${dir} == 1" then    "variable len0 equal ${lx0}"
if "${dir} == 2" then    "variable len0 equal ${ly0}"
if "${dir} == 3" then    "variable len0 equal ${lz0}"
if "${dir} == 4" then    "variable len0 equal ${lz0}"
if "${dir} == 5" then    "variable len0 equal ${lz0}"
if "${dir} == 6" then    "variable len0 equal ${ly0}"
variable len0 equal ${ly0}
variable len0 equal 13.9856798727703

# Reset box and simulation parameters

clear
OMP_NUM_THREADS environment is not set. Defaulting to 1 thread.
  using 1 OpenMP thread(s) per MPI task
box tilt large

The 'box' command has been removed and will be ignored

read_restart restart_333U-50C-33-vasp.equil
Reading restart file ...
  restart file = 10 Sep 2025, LAMMPS = 10 Sep 2025
  restoring atom style full from restart
  triclinic box = (-0.038947129 -0.069704936 -0.13705773) to (15.109889 13.915975 18.459234) with tilt (-7.8096217 0.24996253 -0.1402209)
WARNING: Triclinic box skew is large. LAMMPS will run inefficiently. (src/domain.cpp:221)
  1 by 1 by 1 MPI processor grid
  restoring pair style lj/cut from restart
  restoring bond style harmonic from restart
  restoring angle style hybrid from restart
  restoring dihedral style harmonic from restart
  365 atoms
  390 bonds
  739 angles
  924 dihedrals
Finding 1-2 1-3 1-4 neighbors ...
  special bond factors lj:    0        0        1       
  special bond factors coul:  0        0        1       
     4 = max # of 1-2 neighbors
    10 = max # of 1-3 neighbors
    14 = max # of special neighbors
  special bonds CPU = 0.000 seconds
  read_restart CPU = 0.001 seconds
include ./input/angles_333U-50C-33-vasp.mod
angle_style hybrid fourier cosine/periodic
angle_coeff 1 fourier 114.246973        0.343737        0.374972        0.281246
angle_coeff 2 fourier 157.882480        0.343737        0.374972        0.281246
angle_coeff 3 fourier 221.735285        0.343737        0.374972        0.281246
angle_coeff 4 fourier 32.417871        0.343737        0.374972        0.281246
angle_coeff 5 fourier 83.380072        0.343737        0.374972        0.281246
angle_coeff 6 fourier 58.020602        0.343737        0.374972        0.281246
angle_coeff 7 fourier 90.420412        0.343737        0.374972        0.281246
angle_coeff 8 fourier 75.498766        0.343737        0.374972        0.281246
angle_coeff 9 cosine/periodic 88.853997              -1               3

# Negative deformation

variable delta equal -${up}*${len0}
variable delta equal -0.02*${len0}
variable delta equal -0.02*13.9856798727703
variable deltaxy equal -${up}*xy
variable deltaxy equal -0.02*xy
variable deltaxz equal -${up}*xz
variable deltaxz equal -0.02*xz
variable deltayz equal -${up}*yz
variable deltayz equal -0.02*yz
if "${dir} == 1" then    "change_box all x delta 0 ${delta} xy delta ${deltaxy} xz delta ${deltaxz} remap units box"
if "${dir} == 2" then    "change_box all y delta 0 ${delta} yz delta ${deltayz} remap units box"
if "${dir} == 3" then    "change_box all z delta 0 ${delta} remap units box"
if "${dir} == 4" then    "change_box all yz delta ${delta} remap units box"
if "${dir} == 5" then    "change_box all xz delta ${delta} remap units box"
if "${dir} == 6" then    "change_box all xy delta ${delta} remap units box"
change_box all xy delta ${delta} remap units box
change_box all xy delta -0.279713597455406 remap units box
Changing box ...
WARNING: Triclinic box skew is large. LAMMPS will run inefficiently. (src/domain.cpp:221)
  triclinic box = (-0.038947129 -0.069704936 -0.13705773) to (15.109889 13.915975 18.459234) with tilt (-8.0893352 0.24996253 -0.1402209)

# Relax atoms positions

minimize ${etol} ${ftol} ${maxiter} ${maxeval}
minimize 0 ${ftol} ${maxiter} ${maxeval}
minimize 0 1e-10 ${maxiter} ${maxeval}
minimize 0 1e-10 100000 ${maxeval}
minimize 0 1e-10 100000 100000
Generated 6 of 6 mixed pair_coeff terms from arithmetic mixing rule
Neighbor list info ...
  update: every = 1 steps, delay = 0 steps, check = yes
  max neighbors/atom: 2000, page size: 100000
  master list distance cutoff = 7
  ghost atom cutoff = 7
  binsize = 3.5, bins = 7 5 6
  1 neighbor lists, perpetual/occasional/extra = 1 0 0
  (1) pair lj/cut, perpetual
      attributes: half, newton on
      pair build: half/bin/newton/tri
      stencil: half/bin/3d/tri
      bin: standard
WARNING: Inconsistent image flags
For more information see https://docs.lammps.org/err0027 (src/domain.cpp:1052)
Per MPI rank memory allocation (min/avg/max) = 19.52 | 19.52 | 19.52 Mbytes
   Step          Temp          E_pair         E_mol          TotEng         Press     
    250311   286.77938     -455.79828      596.50698      451.86858      3428.2721    
    250381   286.77938     -477.12547      461.17375      295.20817      4.3952287    
Loop time of 0.0509781 on 1 procs for 70 steps with 365 atoms

100.0% CPU use with 1 MPI tasks x 1 OpenMP threads

Minimization stats:
  Stopping criterion = linesearch alpha is zero
  Energy initial, next-to-last, final = 
      140.708694422013  -15.9517147268057  -15.9517147268057
  Force two-norm initial, final = 200.09706 10.863256
  Force max component initial, final = 21.523388 1.7071749
  Final line search alpha, max atom move = 5.7794369e-11 9.8665094e-11
  Iterations, force evaluations = 70 205

MPI task timing breakdown:
Section |  min time  |  avg time  |  max time  |%varavg| %total
---------------------------------------------------------------
Pair    | 0.03905    | 0.03905    | 0.03905    |   0.0 | 76.60
Bond    | 0.0098016  | 0.0098016  | 0.0098016  |   0.0 | 19.23
Neigh   | 0          | 0          | 0          |   0.0 |  0.00
Comm    | 0.0011893  | 0.0011893  | 0.0011893  |   0.0 |  2.33
Output  | 0          | 0          | 0          |   0.0 |  0.00
Modify  | 0          | 0          | 0          |   0.0 |  0.00
Other   |            | 0.0009371  |            |       |  1.84

Nlocal:            365 ave         365 max         365 min
Histogram: 1 0 0 0 0 0 0 0 0 0
Nghost:           2321 ave        2321 max        2321 min
Histogram: 1 0 0 0 0 0 0 0 0 0
Neighs:          23038 ave       23038 max       23038 min
Histogram: 1 0 0 0 0 0 0 0 0 0

Total # of neighbors = 23038
Ave neighs/atom = 63.117808
Ave special neighs/atom = 6.1863014
Neighbor list builds = 0
Dangerous builds = 0

# Obtain new stress tensor

variable tmp equal pxx
variable pxx1 equal ${tmp}
variable pxx1 equal -2759.03588595407
variable tmp equal pyy
variable pyy1 equal ${tmp}
variable pyy1 equal -2900.63409099038
variable tmp equal pzz
variable pzz1 equal ${tmp}
variable pzz1 equal 5672.85566306239
variable tmp equal pxy
variable pxy1 equal ${tmp}
variable pxy1 equal 2725.44102911408
variable tmp equal pxz
variable pxz1 equal ${tmp}
variable pxz1 equal -6818.7085523265
variable tmp equal pyz
variable pyz1 equal ${tmp}
variable pyz1 equal 668.487605054026

# Compute elastic constant from pressure tensor

variable C1neg equal ${d1}
variable C1neg equal -33.1436705183228
variable C2neg equal ${d2}
variable C2neg equal -33.7675495820352
variable C3neg equal ${d3}
variable C3neg equal 8.833869057869
variable C4neg equal ${d4}
variable C4neg equal -6.97460237107412
variable C5neg equal ${d5}
variable C5neg equal 2.25205389665765
variable C6neg equal ${d6}
variable C6neg equal 2.96975004438575

# Reset box and simulation parameters

clear
OMP_NUM_THREADS environment is not set. Defaulting to 1 thread.
  using 1 OpenMP thread(s) per MPI task
box tilt large

The 'box' command has been removed and will be ignored

read_restart restart_333U-50C-33-vasp.equil
Reading restart file ...
  restart file = 10 Sep 2025, LAMMPS = 10 Sep 2025
  restoring atom style full from restart
  triclinic box = (-0.038947129 -0.069704936 -0.13705773) to (15.109889 13.915975 18.459234) with tilt (-7.8096217 0.24996253 -0.1402209)
WARNING: Triclinic box skew is large. LAMMPS will run inefficiently. (src/domain.cpp:221)
  1 by 1 by 1 MPI processor grid
  restoring pair style lj/cut from restart
  restoring bond style harmonic from restart
  restoring angle style hybrid from restart
  restoring dihedral style harmonic from restart
  365 atoms
  390 bonds
  739 angles
  924 dihedrals
Finding 1-2 1-3 1-4 neighbors ...
  special bond factors lj:    0        0        1       
  special bond factors coul:  0        0        1       
     4 = max # of 1-2 neighbors
    10 = max # of 1-3 neighbors
    14 = max # of special neighbors
  special bonds CPU = 0.000 seconds
  read_restart CPU = 0.001 seconds
include ./input/angles_333U-50C-33-vasp.mod
angle_style hybrid fourier cosine/periodic
angle_coeff 1 fourier 114.246973        0.343737        0.374972        0.281246
angle_coeff 2 fourier 157.882480        0.343737        0.374972        0.281246
angle_coeff 3 fourier 221.735285        0.343737        0.374972        0.281246
angle_coeff 4 fourier 32.417871        0.343737        0.374972        0.281246
angle_coeff 5 fourier 83.380072        0.343737        0.374972        0.281246
angle_coeff 6 fourier 58.020602        0.343737        0.374972        0.281246
angle_coeff 7 fourier 90.420412        0.343737        0.374972        0.281246
angle_coeff 8 fourier 75.498766        0.343737        0.374972        0.281246
angle_coeff 9 cosine/periodic 88.853997              -1               3

# Positive deformation

variable delta equal ${up}*${len0}
variable delta equal 0.02*${len0}
variable delta equal 0.02*13.9856798727703
variable deltaxy equal ${up}*xy
variable deltaxy equal 0.02*xy
variable deltaxz equal ${up}*xz
variable deltaxz equal 0.02*xz
variable deltayz equal ${up}*yz
variable deltayz equal 0.02*yz
if "${dir} == 1" then    "change_box all x delta 0 ${delta} xy delta ${deltaxy} xz delta ${deltaxz} remap units box"
if "${dir} == 2" then    "change_box all y delta 0 ${delta} yz delta ${deltayz} remap units box"
if "${dir} == 3" then    "change_box all z delta 0 ${delta} remap units box"
if "${dir} == 4" then    "change_box all yz delta ${delta} remap units box"
if "${dir} == 5" then    "change_box all xz delta ${delta} remap units box"
if "${dir} == 6" then    "change_box all xy delta ${delta} remap units box"
change_box all xy delta ${delta} remap units box
change_box all xy delta 0.279713597455406 remap units box
Changing box ...
WARNING: Triclinic box skew is large. LAMMPS will run inefficiently. (src/domain.cpp:221)
  triclinic box = (-0.038947129 -0.069704936 -0.13705773) to (15.109889 13.915975 18.459234) with tilt (-7.5299081 0.24996253 -0.1402209)

# Relax atoms positions

minimize ${etol} ${ftol} ${maxiter} ${maxeval}
minimize 0 ${ftol} ${maxiter} ${maxeval}
minimize 0 1e-10 ${maxiter} ${maxeval}
minimize 0 1e-10 100000 ${maxeval}
minimize 0 1e-10 100000 100000
Generated 6 of 6 mixed pair_coeff terms from arithmetic mixing rule
Neighbor list info ...
  update: every = 1 steps, delay = 0 steps, check = yes
  max neighbors/atom: 2000, page size: 100000
  master list distance cutoff = 7
  ghost atom cutoff = 7
  binsize = 3.5, bins = 7 5 6
  1 neighbor lists, perpetual/occasional/extra = 1 0 0
  (1) pair lj/cut, perpetual
      attributes: half, newton on
      pair build: half/bin/newton/tri
      stencil: half/bin/3d/tri
      bin: standard
WARNING: Inconsistent image flags
For more information see https://docs.lammps.org/err0027 (src/domain.cpp:1052)
Per MPI rank memory allocation (min/avg/max) = 19.52 | 19.52 | 19.52 Mbytes
   Step          Temp          E_pair         E_mol          TotEng         Press     
    250311   286.77938     -454.72607      590.3407       446.77451      3955.9091    
    250346   286.77938     -476.61397      468.47001      303.01592      716.269      
Loop time of 0.0351474 on 1 procs for 35 steps with 365 atoms

100.0% CPU use with 1 MPI tasks x 1 OpenMP threads

Minimization stats:
  Stopping criterion = linesearch alpha is zero
  Energy initial, next-to-last, final = 
      135.614628515147  -8.14395961087178  -8.14395961087178
  Force two-norm initial, final = 200.4309 24.840616
  Force max component initial, final = 22.108098 3.0152462
  Final line search alpha, max atom move = 1.228727e-11 3.7049144e-11
  Iterations, force evaluations = 35 139

MPI task timing breakdown:
Section |  min time  |  avg time  |  max time  |%varavg| %total
---------------------------------------------------------------
Pair    | 0.026979   | 0.026979   | 0.026979   |   0.0 | 76.76
Bond    | 0.0067561  | 0.0067561  | 0.0067561  |   0.0 | 19.22
Neigh   | 0          | 0          | 0          |   0.0 |  0.00
Comm    | 0.00079012 | 0.00079012 | 0.00079012 |   0.0 |  2.25
Output  | 0          | 0          | 0          |   0.0 |  0.00
Modify  | 0          | 0          | 0          |   0.0 |  0.00
Other   |            | 0.000622   |            |       |  1.77

Nlocal:            365 ave         365 max         365 min
Histogram: 1 0 0 0 0 0 0 0 0 0
Nghost:           2295 ave        2295 max        2295 min
Histogram: 1 0 0 0 0 0 0 0 0 0
Neighs:          23003 ave       23003 max       23003 min
Histogram: 1 0 0 0 0 0 0 0 0 0

Total # of neighbors = 23003
Ave neighs/atom = 63.021918
Ave special neighs/atom = 6.1863014
Neighbor list builds = 0
Dangerous builds = 0

# Obtain new stress tensor

variable tmp equal pe
variable e1 equal ${tmp}
variable e1 equal -8.14395961087178
variable tmp equal press
variable p1 equal ${tmp}
variable p1 equal 716.269004621549
variable tmp equal pxx
variable pxx1 equal ${tmp}
variable pxx1 equal -1740.85161755308
variable tmp equal pyy
variable pyy1 equal ${tmp}
variable pyy1 equal -1571.71740282144
variable tmp equal pzz
variable pzz1 equal ${tmp}
variable pzz1 equal 5461.37603423916
variable tmp equal pxy
variable pxy1 equal ${tmp}
variable pxy1 equal -4806.8995670323
variable tmp equal pxz
variable pxz1 equal ${tmp}
variable pxz1 equal -6877.97033385984
variable tmp equal pyz
variable pyz1 equal ${tmp}
variable pyz1 equal 615.031426299366

# Compute elastic constant from pressure tensor

variable C1pos equal ${d1}
variable C1pos equal 28.0527491763178
variable C2pos equal ${d2}
variable C2pos equal 27.1229661411905
variable C3pos equal ${d3}
variable C3pos equal -7.77647091375285
variable C4pos equal ${d4}
variable C4pos equal 7.24188326484742
variable C5pos equal ${d5}
variable C5pos equal -1.95574498899095
variable C6pos equal ${d6}
variable C6pos equal 34.6919529363461

# Combine positive and negative

variable C1${dir} equal 0.5*(${C1neg}+${C1pos})
variable C16 equal 0.5*(${C1neg}+${C1pos})
variable C16 equal 0.5*(-33.1436705183228+${C1pos})
variable C16 equal 0.5*(-33.1436705183228+28.0527491763178)
variable C2${dir} equal 0.5*(${C2neg}+${C2pos})
variable C26 equal 0.5*(${C2neg}+${C2pos})
variable C26 equal 0.5*(-33.7675495820352+${C2pos})
variable C26 equal 0.5*(-33.7675495820352+27.1229661411905)
variable C3${dir} equal 0.5*(${C3neg}+${C3pos})
variable C36 equal 0.5*(${C3neg}+${C3pos})
variable C36 equal 0.5*(8.833869057869+${C3pos})
variable C36 equal 0.5*(8.833869057869+-7.77647091375285)
variable C4${dir} equal 0.5*(${C4neg}+${C4pos})
variable C46 equal 0.5*(${C4neg}+${C4pos})
variable C46 equal 0.5*(-6.97460237107412+${C4pos})
variable C46 equal 0.5*(-6.97460237107412+7.24188326484742)
variable C5${dir} equal 0.5*(${C5neg}+${C5pos})
variable C56 equal 0.5*(${C5neg}+${C5pos})
variable C56 equal 0.5*(2.25205389665765+${C5pos})
variable C56 equal 0.5*(2.25205389665765+-1.95574498899095)
variable C6${dir} equal 0.5*(${C6neg}+${C6pos})
variable C66 equal 0.5*(${C6neg}+${C6pos})
variable C66 equal 0.5*(2.96975004438575+${C6pos})
variable C66 equal 0.5*(2.96975004438575+34.6919529363461)

# Delete dir to make sure it is not reused

variable dir delete

# Output final values

variable C11all equal ${C11}
variable C11all equal 57.6298444960848
variable C22all equal ${C22}
variable C22all equal 69.4045872813705
variable C33all equal ${C33}
variable C33all equal 69.6123835821697

variable C12all equal 0.5*(${C12}+${C21})
variable C12all equal 0.5*(23.2330536276759+${C21})
variable C12all equal 0.5*(23.2330536276759+21.7923304632358)
variable C13all equal 0.5*(${C13}+${C31})
variable C13all equal 0.5*(22.7422514314299+${C31})
variable C13all equal 0.5*(22.7422514314299+23.4269755359332)
variable C23all equal 0.5*(${C23}+${C32})
variable C23all equal 0.5*(29.617087593597+${C32})
variable C23all equal 0.5*(29.617087593597+30.7106647943857)

variable C44all equal ${C44}
variable C44all equal 26.4512514819424
variable C55all equal ${C55}
variable C55all equal 21.0364199599045
variable C66all equal ${C66}
variable C66all equal 18.8308514903659

variable C14all equal 0.5*(${C14}+${C41})
variable C14all equal 0.5*(0.333180798716+${C41})
variable C14all equal 0.5*(0.333180798716+-0.69784607822461)
variable C15all equal 0.5*(${C15}+${C51})
variable C15all equal 0.5*(-0.0699293521453992+${C51})
variable C15all equal 0.5*(-0.0699293521453992+-2.2648315191492)
variable C16all equal 0.5*(${C16}+${C61})
variable C16all equal 0.5*(-2.5454606710025+${C61})
variable C16all equal 0.5*(-2.5454606710025+-3.97668873601925)

variable C24all equal 0.5*(${C24}+${C42})
variable C24all equal 0.5*(1.7710303587466+${C42})
variable C24all equal 0.5*(1.7710303587466+1.33304490635139)
variable C25all equal 0.5*(${C25}+${C52})
variable C25all equal 0.5*(1.1056078376149+${C52})
variable C25all equal 0.5*(1.1056078376149+0.361839201226625)
variable C26all equal 0.5*(${C26}+${C62})
variable C26all equal 0.5*(-3.32229172042235+${C62})
variable C26all equal 0.5*(-3.32229172042235+-0.5990553267381)

variable C34all equal 0.5*(${C34}+${C43})
variable C34all equal 0.5*(3.64620110664928+${C43})
variable C34all equal 0.5*(3.64620110664928+3.13049328836287)
variable C35all equal 0.5*(${C35}+${C53})
variable C35all equal 0.5*(2.87044417743467+${C53})
variable C35all equal 0.5*(2.87044417743467+0.733196102896725)
variable C36all equal 0.5*(${C36}+${C63})
variable C36all equal 0.5*(0.528699072058075+${C63})
variable C36all equal 0.5*(0.528699072058075+-3.71478400405445)

variable C45all equal 0.5*(${C45}+${C54})
variable C45all equal 0.5*(-1.77377884506681+${C54})
variable C45all equal 0.5*(-1.77377884506681+-1.53525261386043)
variable C46all equal 0.5*(${C46}+${C64})
variable C46all equal 0.5*(0.13364044688665+${C64})
variable C46all equal 0.5*(0.13364044688665+1.86193406919965)
variable C56all equal 0.5*(${C56}+${C65})
variable C56all equal 0.5*(0.14815445383335+${C65})
variable C56all equal 0.5*(0.14815445383335+1.6990512470926)

# Average moduli for cubic crystals

variable C11cubic equal (${C11all}+${C22all}+${C33all})/3.0
variable C11cubic equal (57.6298444960848+${C22all}+${C33all})/3.0
variable C11cubic equal (57.6298444960848+69.4045872813705+${C33all})/3.0
variable C11cubic equal (57.6298444960848+69.4045872813705+69.6123835821697)/3.0
variable C12cubic equal (${C12all}+${C13all}+${C23all})/3.0
variable C12cubic equal (22.5126920454559+${C13all}+${C23all})/3.0
variable C12cubic equal (22.5126920454559+23.0846134836816+${C23all})/3.0
variable C12cubic equal (22.5126920454559+23.0846134836816+30.1638761939913)/3.0
variable C44cubic equal (${C44all}+${C55all}+${C66all})/3.0
variable C44cubic equal (26.4512514819424+${C55all}+${C66all})/3.0
variable C44cubic equal (26.4512514819424+21.0364199599045+${C66all})/3.0
variable C44cubic equal (26.4512514819424+21.0364199599045+18.8308514903659)/3.0

variable bulkmodulus equal (${C11cubic}+2*${C12cubic})/3.0
variable bulkmodulus equal (65.5489384532083+2*${C12cubic})/3.0
variable bulkmodulus equal (65.5489384532083+2*25.2537272410429)/3.0
variable shearmodulus1 equal ${C44cubic}
variable shearmodulus1 equal 22.1061743107376
variable shearmodulus2 equal (${C11cubic}-${C12cubic})/2.0
variable shearmodulus2 equal (65.5489384532083-${C12cubic})/2.0
variable shearmodulus2 equal (65.5489384532083-25.2537272410429)/2.0
variable poissonratio equal 1.0/(1.0+${C11cubic}/${C12cubic})
variable poissonratio equal 1.0/(1.0+65.5489384532083/${C12cubic})
variable poissonratio equal 1.0/(1.0+65.5489384532083/25.2537272410429)

print "Elastic Constant 1 1 = ${C11all}"
Elastic Constant 1 1 = 57.6298444960848
print "Elastic Constant 2 2 = ${C22all}"
Elastic Constant 2 2 = 69.4045872813705
print "Elastic Constant 3 3 = ${C33all}"
Elastic Constant 3 3 = 69.6123835821697

print "Elastic Constant 1 2 = ${C12all}"
Elastic Constant 1 2 = 22.5126920454559
print "Elastic Constant 1 3 = ${C13all}"
Elastic Constant 1 3 = 23.0846134836816
print "Elastic Constant 2 3 = ${C23all}"
Elastic Constant 2 3 = 30.1638761939913

print "Elastic Constant 4 4 = ${C44all}"
Elastic Constant 4 4 = 26.4512514819424
print "Elastic Constant 5 5 = ${C55all}"
Elastic Constant 5 5 = 21.0364199599045
print "Elastic Constant 6 6 = ${C66all}"
Elastic Constant 6 6 = 18.8308514903659

print "Elastic Constant 1 4 = ${C14all}"
Elastic Constant 1 4 = -0.182332639754305
print "Elastic Constant 1 5 = ${C15all}"
Elastic Constant 1 5 = -1.1673804356473
print "Elastic Constant 1 6 = ${C16all}"
Elastic Constant 1 6 = -3.26107470351088

print "Elastic Constant 2 4 = ${C24all}"
Elastic Constant 2 4 = 1.552037632549
print "Elastic Constant 2 5 = ${C25all}"
Elastic Constant 2 5 = 0.733723519420762
print "Elastic Constant 2 6 = ${C26all}"
Elastic Constant 2 6 = -1.96067352358023

print "Elastic Constant 3 4 = ${C34all}"
Elastic Constant 3 4 = 3.38834719750608
print "Elastic Constant 3 5 = ${C35all}"
Elastic Constant 3 5 = 1.8018201401657
print "Elastic Constant 3 6 = ${C36all}"
Elastic Constant 3 6 = -1.59304246599819

print "Elastic Constant 4 5 = ${C45all}"
Elastic Constant 4 5 = -1.65451572946362
print "Elastic Constant 4 6 = ${C46all}"
Elastic Constant 4 6 = 0.99778725804315
print "Elastic Constant 5 6 = ${C56all}"
Elastic Constant 5 6 = 0.923602850462975

print "Bulk Modulus = ${bulkmodulus} ${cunits}"
Bulk Modulus = 38.6854643117647 GPa
print "Shear Modulus 1 = ${shearmodulus1} ${cunits}"
Shear Modulus 1 = 22.1061743107376 GPa
print "Shear Modulus 2 = ${shearmodulus2} ${cunits}"
Shear Modulus 2 = 20.1476056060827 GPa
print "Poisson Ratio = ${poissonratio}"
Poisson Ratio = 0.278116584441218

variable rho equal density
print "density (g/cm^3) = ${rho}"
density (g/cm^3) = 1.67799574716002
Total wall time: 0:01:03
