units           real
atom_style      full
boundary        p p p

pair_style      lj/cut 5.000
bond_style      harmonic
angle_style     hybrid cosine/periodic fourier
dihedral_style  harmonic

special_bonds   lj/coul 0.0 0.0 1.0
pair_modify     tail yes mix arithmetic
dielectric      1.0
box tilt        large

The 'box' command has been removed and will be ignored

read_data       ./dat/data.333U-50C-26-vasp
Reading data file ...
  triclinic box = (0 0 0) to (15.526412 14.104294 17.464155) with tilt (-6.934611 2.088 0.879508)
  1 by 1 by 1 MPI processor grid
  reading atoms ...
  365 atoms
  scanning bonds ...
  4 = max bonds/atom
  scanning angles ...
  6 = max angles/atom
  scanning dihedrals ...
  24 = max dihedrals/atom
  triclinic box = (0 0 0) to (15.526412 14.104294 17.464155) with tilt (-6.934611 2.088 0.879508)
  1 by 1 by 1 MPI processor grid
  reading bonds ...
  390 bonds
  reading angles ...
  739 angles
  reading dihedrals ...
  924 dihedrals
Finding 1-2 1-3 1-4 neighbors ...
  special bond factors lj:    0        0        1       
  special bond factors coul:  0        0        1       
     4 = max # of 1-2 neighbors
     8 = max # of 1-3 neighbors
    12 = max # of special neighbors
  special bonds CPU = 0.000 seconds
  read_data CPU = 0.009 seconds

#### Atom Groupings ####
group           fram     id   1:365
365 atoms in group fram
#### END Atom Groupings ####

compute am all property/atom mass
dump        atom_pos all extxyz 100 ./output/333U-50C-26-vasp.lammpstrj
dump_modify atom_pos element Si C O H mass yes
thermo          1000
thermo_style    custom step temp pe ke etotal press vol density

variable up equal 2e-2
variable cfac equal 1.0e-4
variable cunits string GPa

# Define minimization parameters
variable etol equal 0.0
variable ftol equal 1.0e-10
variable maxiter equal 100000
variable maxeval equal 100000
variable dmax equal 1.0e-2

variable temp equal 300.0
variable thermal_damp index 100.0
variable pressure_damp index 500.0

fix relax all box/relax aniso 0.0 vmax 0.001
unfix relax
minimize ${etol} ${ftol} ${maxiter} ${maxeval}
minimize 0 ${ftol} ${maxiter} ${maxeval}
minimize 0 1e-10 ${maxiter} ${maxeval}
minimize 0 1e-10 100000 ${maxeval}
minimize 0 1e-10 100000 100000
Generated 6 of 6 mixed pair_coeff terms from arithmetic mixing rule
Neighbor list info ...
  update: every = 1 steps, delay = 0 steps, check = yes
  max neighbors/atom: 2000, page size: 100000
  master list distance cutoff = 7
  ghost atom cutoff = 7
  binsize = 3.5, bins = 8 5 5
  1 neighbor lists, perpetual/occasional/extra = 1 0 0
  (1) pair lj/cut, perpetual
      attributes: half, newton on
      pair build: half/bin/newton/tri
      stencil: half/bin/3d/tri
      bin: standard
WARNING: Inconsistent image flags
For more information see https://docs.lammps.org/err0027 (src/domain.cpp:1052)
Per MPI rank memory allocation (min/avg/max) = 17.52 | 17.52 | 17.52 Mbytes
   Step          Temp          PotEng         KinEng         TotEng         Press          Volume        Density    
         0   0              1478.8284      0              1478.8284      107779.68      3824.4592      1.7286617    
        70   0              266.04551      0              266.04551      17096.104      3824.4592      1.7286617    
Loop time of 0.0553398 on 1 procs for 70 steps with 365 atoms

99.9% CPU use with 1 MPI tasks x 1 OpenMP threads

Minimization stats:
  Stopping criterion = linesearch alpha is zero
  Energy initial, next-to-last, final = 
       1478.8284073848   266.045508875959   266.045508875959
  Force two-norm initial, final = 898.21958 22.837247
  Force max component initial, final = 94.475368 5.9889089
  Final line search alpha, max atom move = 1.2323688e-11 7.3805446e-11
  Iterations, force evaluations = 70 192

MPI task timing breakdown:
Section |  min time  |  avg time  |  max time  |%varavg| %total
---------------------------------------------------------------
Pair    | 0.038101   | 0.038101   | 0.038101   |   0.0 | 68.85
Bond    | 0.0091994  | 0.0091994  | 0.0091994  |   0.0 | 16.62
Neigh   | 0.005276   | 0.005276   | 0.005276   |   0.0 |  9.53
Comm    | 0.001285   | 0.001285   | 0.001285   |   0.0 |  2.32
Output  | 0          | 0          | 0          |   0.0 |  0.00
Modify  | 0          | 0          | 0          |   0.0 |  0.00
Other   |            | 0.001478   |            |       |  2.67

Nlocal:            365 ave         365 max         365 min
Histogram: 1 0 0 0 0 0 0 0 0 0
Nghost:           2287 ave        2287 max        2287 min
Histogram: 1 0 0 0 0 0 0 0 0 0
Neighs:          23695 ave       23695 max       23695 min
Histogram: 1 0 0 0 0 0 0 0 0 0

Total # of neighbors = 23695
Ave neighs/atom = 64.917808
Ave special neighs/atom = 6.1863014
Neighbor list builds = 2
Dangerous builds = 0

# Generating the full routine as described in the paper for UFF
fix nvt_relax   all nvt temp 300 300 ${thermal_damp}
fix nvt_relax   all nvt temp 300 300 100.0
run 100000      # 100 picoseconds
Generated 6 of 6 mixed pair_coeff terms from arithmetic mixing rule
WARNING: Inconsistent image flags
For more information see https://docs.lammps.org/err0027 (src/domain.cpp:1052)
Per MPI rank memory allocation (min/avg/max) = 17.46 | 17.46 | 17.46 Mbytes
   Step          Temp          PotEng         KinEng         TotEng         Press          Volume        Density    
        70   0              266.04551      0              266.04551      17096.104      3824.4592      1.7286617    
      1000   228.47728      439.99705      247.90124      687.89829      31504.33       3824.4592      1.7286617    
      2000   315.44836      490.17918      342.26616      832.44534      20501.983      3824.4592      1.7286617    
      3000   300.45413      447.13835      325.9972       773.13554      22255.816      3824.4592      1.7286617    
      4000   300.54272      440.91643      326.09332      767.00975      19017.399      3824.4592      1.7286617    
      5000   320.49498      436.19894      347.74182      783.94076      19763.353      3824.4592      1.7286617    
      6000   304.27577      427.40629      330.14373      757.55002      17929.376      3824.4592      1.7286617    
      7000   310.17559      412.06855      336.54513      748.61367      15675.717      3824.4592      1.7286617    
      8000   310.26481      413.24448      336.64193      749.88641      15993.669      3824.4592      1.7286617    
      9000   299.62507      451.5954       325.09766      776.69306      16021.721      3824.4592      1.7286617    
     10000   281.73966      421.87475      305.69172      727.56647      16809.778      3824.4592      1.7286617    
     11000   311.87189      414.5604       338.38564      752.94603      10554.334      3824.4592      1.7286617    
     12000   304.77915      414.92497      330.68991      745.61488      16327.023      3824.4592      1.7286617    
     13000   277.5777       437.77684      301.17593      738.95277      17499.539      3824.4592      1.7286617    
     14000   289.29854      428.73386      313.89321      742.62707      16844.168      3824.4592      1.7286617    
     15000   278.75587      417.07256      302.45426      719.52682      12269.077      3824.4592      1.7286617    
     16000   310.51642      415.58735      336.91493      752.50227      9787.9922      3824.4592      1.7286617    
     17000   319.72697      404.86662      346.90851      751.77513      10416.657      3824.4592      1.7286617    
     18000   293.83945      405.31969      318.82016      724.13986      16300.879      3824.4592      1.7286617    
     19000   315.52294      421.80924      342.34707      764.15632      15975.667      3824.4592      1.7286617    
     20000   309.01988      426.78557      335.29116      762.07673      16175.813      3824.4592      1.7286617    
     21000   305.81623      429.35529      331.81516      761.17044      14521.562      3824.4592      1.7286617    
     22000   302.63618      417.41584      328.36476      745.78059      12199.637      3824.4592      1.7286617    
     23000   303.89973      410.14674      329.73572      739.88246      10715.062      3824.4592      1.7286617    
     24000   302.83117      434.02341      328.57632      762.59973      9396.5457      3824.4592      1.7286617    
     25000   290.62242      401.03933      315.32965      716.36897      18184.469      3824.4592      1.7286617    
     26000   297.12328      406.04971      322.38317      728.43288      8948.3908      3824.4592      1.7286617    
     27000   294.49023      413.90188      319.52627      733.42815      18299.84       3824.4592      1.7286617    
     28000   282.2782       411.79532      306.27605      718.07136      19914.23       3824.4592      1.7286617    
     29000   293.82443      411.85891      318.80387      730.66278      14308.104      3824.4592      1.7286617    
     30000   284.88794      423.95137      309.10765      733.05901      21080.974      3824.4592      1.7286617    
     31000   284.05999      394.93457      308.20931      703.14388      11538.192      3824.4592      1.7286617    
     32000   303.55646      419.77478      329.36327      749.13806      10386.241      3824.4592      1.7286617    
     33000   288.75685      395.05945      313.30547      708.36493      6484.7563      3824.4592      1.7286617    
     34000   310.79626      414.55745      337.21856      751.776        18979.18       3824.4592      1.7286617    
     35000   307.50461      399.82397      333.64708      733.47105      15002.612      3824.4592      1.7286617    
     36000   305.0356       426.39939      330.96816      757.36755      13076.217      3824.4592      1.7286617    
     37000   289.39905      421.51422      314.00227      735.51648      14933.963      3824.4592      1.7286617    
     38000   297.36522      436.43312      322.64569      759.0788       15924.799      3824.4592      1.7286617    
     39000   275.19187      411.52544      298.58727      710.11271      15712.504      3824.4592      1.7286617    
     40000   305.70655      423.34679      331.69614      755.04294      18062.523      3824.4592      1.7286617    
     41000   290.38829      423.51391      315.07561      738.58952      19111.102      3824.4592      1.7286617    
     42000   300.11966      410.8333       325.63429      736.46759      13810.987      3824.4592      1.7286617    
     43000   290.72479      411.80776      315.44072      727.24847      14450.592      3824.4592      1.7286617    
     44000   286.59032      430.25278      310.95476      741.20754      18728.033      3824.4592      1.7286617    
     45000   299.17822      455.18052      324.61282      779.79333      13485.766      3824.4592      1.7286617    
     46000   285.49739      417.18244      309.76891      726.95134      13177.683      3824.4592      1.7286617    
     47000   333.18935      440.05079      361.51539      801.56618      19644.831      3824.4592      1.7286617    
     48000   284.29925      433.16035      308.46891      741.62926      17497.139      3824.4592      1.7286617    
     49000   286.32287      422.97631      310.66457      733.64087      15126.053      3824.4592      1.7286617    
     50000   290.30356      432.13073      314.98368      747.11441      15362.675      3824.4592      1.7286617    
     51000   272.79295      405.01752      295.9844       701.00193      12547.951      3824.4592      1.7286617    
     52000   300.9319       424.09799      326.51558      750.61357      20229.175      3824.4592      1.7286617    
     53000   295.64272      423.86259      320.77674      744.63933      9854.4115      3824.4592      1.7286617    
     54000   280.80241      426.78982      304.67478      731.4646       14888.979      3824.4592      1.7286617    
     55000   293.81086      407.81573      318.78915      726.60488      14117.444      3824.4592      1.7286617    
     56000   294.56575      426.04942      319.60822      745.65763      18351.48       3824.4592      1.7286617    
     57000   298.19551      417.71377      323.54656      741.26033      12378.84       3824.4592      1.7286617    
     58000   290.22415      413.92846      314.89751      728.82597      16528.066      3824.4592      1.7286617    
     59000   320.60704      429.92484      347.86341      777.78824      11951.547      3824.4592      1.7286617    
     60000   296.88478      425.2289       322.1244       747.3533       14053.469      3824.4592      1.7286617    
     61000   313.89408      415.21996      340.57974      755.79969      14839.48       3824.4592      1.7286617    
     62000   316.91233      425.44956      343.85459      769.30415      14862.822      3824.4592      1.7286617    
     63000   294.86312      407.24415      319.93087      727.17502      15229.458      3824.4592      1.7286617    
     64000   275.71224      433.40556      299.15187      732.55743      16944.121      3824.4592      1.7286617    
     65000   305.61822      427.29845      331.60031      758.89876      15842.164      3824.4592      1.7286617    
     66000   294.1439       414.08533      319.1505       733.23583      12664.117      3824.4592      1.7286617    
     67000   316.3766       421.13793      343.27331      764.41124      14434.202      3824.4592      1.7286617    
     68000   304.24057      409.40439      330.10554      739.50993      11738.034      3824.4592      1.7286617    
     69000   285.51018      408.21027      309.78278      717.99305      12441.105      3824.4592      1.7286617    
     70000   301.39919      420.17159      327.0226       747.1942       11054.229      3824.4592      1.7286617    
     71000   301.70853      404.13564      327.35824      731.49388      14670.301      3824.4592      1.7286617    
     72000   280.59211      459.39076      304.4466       763.83736      16848.776      3824.4592      1.7286617    
     73000   312.55068      405.10355      339.12214      744.22569      13134.694      3824.4592      1.7286617    
     74000   294.54235      442.11005      319.58283      761.69288      18097.683      3824.4592      1.7286617    
     75000   317.10656      410.20954      344.06533      754.27487      13988.197      3824.4592      1.7286617    
     76000   314.64597      411.2932       341.39556      752.68875      16162.674      3824.4592      1.7286617    
     77000   302.66928      434.15055      328.40067      762.55122      11285.032      3824.4592      1.7286617    
     78000   295.64159      407.08248      320.77551      727.85799      15169.209      3824.4592      1.7286617    
     79000   301.92117      412.8475       327.58896      740.43646      15716.923      3824.4592      1.7286617    
     80000   306.40714      411.06191      332.4563       743.51821      16054.053      3824.4592      1.7286617    
     81000   291.53073      418.9787       316.31517      735.29388      18006.345      3824.4592      1.7286617    
     82000   312.94436      422.54039      339.54928      762.08967      12644.207      3824.4592      1.7286617    
     83000   300.90849      412.78695      326.49018      739.27713      10781.974      3824.4592      1.7286617    
     84000   304.9006       413.52736      330.82168      744.34904      16445.781      3824.4592      1.7286617    
     85000   293.70825      427.3693       318.67782      746.04712      11808.839      3824.4592      1.7286617    
     86000   295.07469      408.96739      320.16043      729.12782      15125.132      3824.4592      1.7286617    
     87000   293.77719      443.73422      318.75261      762.48683      15444.476      3824.4592      1.7286617    
     88000   290.83423      430.52353      315.55946      746.08299      14906.872      3824.4592      1.7286617    
     89000   292.90873      397.5872       317.81033      715.39752      14405.547      3824.4592      1.7286617    
     90000   305.32414      436.86923      331.28123      768.15046      19611.09       3824.4592      1.7286617    
     91000   287.6285       420.5581       312.0812       732.63929      20158.149      3824.4592      1.7286617    
     92000   304.30219      449.11127      330.17239      779.28367      15264.818      3824.4592      1.7286617    
     93000   322.66385      414.08433      350.09507      764.1794       14673.063      3824.4592      1.7286617    
     94000   263.74294      407.63189      286.16501      693.7969       15433.386      3824.4592      1.7286617    
     95000   302.85257      433.74101      328.59954      762.34055      15283.138      3824.4592      1.7286617    
     96000   300.0034       420.57285      325.50814      746.08099      14324.358      3824.4592      1.7286617    
     97000   307.8032       427.22081      333.97105      761.19185      14439.218      3824.4592      1.7286617    
     98000   301.88218      424.35408      327.54665      751.90073      11870.177      3824.4592      1.7286617    
     99000   304.45883      398.54035      330.34236      728.88271      17971.376      3824.4592      1.7286617    
    100000   317.04056      421.62885      343.99371      765.62256      17616.703      3824.4592      1.7286617    
    100070   313.36891      419.38461      340.00992      759.39454      12402.026      3824.4592      1.7286617    
Loop time of 24.8858 on 1 procs for 100000 steps with 365 atoms

Performance: 347.186 ns/day, 0.069 hours/ns, 4018.355 timesteps/s, 1.467 Matom-step/s
99.8% CPU use with 1 MPI tasks x 1 OpenMP threads

MPI task timing breakdown:
Section |  min time  |  avg time  |  max time  |%varavg| %total
---------------------------------------------------------------
Pair    | 15.525     | 15.525     | 15.525     |   0.0 | 62.39
Bond    | 3.9        | 3.9        | 3.9        |   0.0 | 15.67
Neigh   | 3.7982     | 3.7982     | 3.7982     |   0.0 | 15.26
Comm    | 0.59133    | 0.59133    | 0.59133    |   0.0 |  2.38
Output  | 0.56557    | 0.56557    | 0.56557    |   0.0 |  2.27
Modify  | 0.3691     | 0.3691     | 0.3691     |   0.0 |  1.48
Other   |            | 0.1361     |            |       |  0.55

Nlocal:            365 ave         365 max         365 min
Histogram: 1 0 0 0 0 0 0 0 0 0
Nghost:           2289 ave        2289 max        2289 min
Histogram: 1 0 0 0 0 0 0 0 0 0
Neighs:          23651 ave       23651 max       23651 min
Histogram: 1 0 0 0 0 0 0 0 0 0

Total # of neighbors = 23651
Ave neighs/atom = 64.79726
Ave special neighs/atom = 6.1863014
Neighbor list builds = 1508
Dangerous builds = 0
unfix           nvt_relax

fix npt_relax   all npt temp 300 300 ${thermal_damp} iso 0 0 ${pressure_damp}
fix npt_relax   all npt temp 300 300 100.0 iso 0 0 ${pressure_damp}
fix npt_relax   all npt temp 300 300 100.0 iso 0 0 500.0
run 100000      # 100 picoseconds
Generated 6 of 6 mixed pair_coeff terms from arithmetic mixing rule
WARNING: Inconsistent image flags
For more information see https://docs.lammps.org/err0027 (src/domain.cpp:1052)
Per MPI rank memory allocation (min/avg/max) = 17.48 | 17.48 | 17.48 Mbytes
   Step          Temp          PotEng         KinEng         TotEng         Press          Volume        Density    
    100070   313.36891      419.38461      340.00992      759.39454      12402.026      3824.4592      1.7286617    
    101000   283.91479      397.70002      308.05177      705.75179      9283.6628      3947.2056      1.6749055    
    102000   306.06566      438.42779      332.08579      770.51358     -692.87228      4012.5573      1.6476267    
    103000   288.77119      415.1231       313.32103      728.44414     -342.68576      3945.1053      1.6757972    
    104000   274.55601      414.01494      297.89736      711.9123      -1020.7297      3983.5297      1.6596328    
    105000   320.92207      414.56434      348.20522      762.76956      2326.1961      3962.5158      1.6684341    
    106000   312.5211       420.81909      339.09004      759.90913     -7137.3972      3985.5366      1.6587971    
    107000   289.54626      426.18014      314.162        740.34214     -954.33047      3969.9871      1.6652942    
    108000   313.72134      422.50658      340.39232      762.89889     -5829.7705      3975.1422      1.6631345    
    109000   312.12274      417.66803      338.65781      756.32584     -3157.6258      4004.9663      1.6507495    
    110000   270.59475      404.47063      293.59933      698.06996     -3770.217       3998.23        1.6535308    
    111000   321.67147      401.33541      349.01832      750.35373      680.34143      3989.9427      1.6569652    
    112000   309.36553      393.80086      335.66619      729.46705      572.51632      3948.3015      1.6744406    
    113000   300.17732      407.31325      325.69685      733.0101      -2032.7629      3986.067       1.6585763    
    114000   294.66948      420.53192      319.72076      740.25268     -2057.8317      3937.5158      1.6790272    
    115000   320.83787      377.22086      348.11385      725.33471     -4369.4342      3953.1574      1.6723838    
    116000   290.51065      440.27438      315.20837      755.48275     -171.58831      3972.0185      1.6644425    
    117000   292.1263       404.0721       316.96137      721.03347      2873.5698      3939.9678      1.6779823    
    118000   297.64026      399.89092      322.9441       722.83503     -855.8962       3951.5198      1.6730769    
    119000   304.52554      426.63976      330.41474      757.05449     -412.45108      3942.57        1.6768748    
    120000   287.19965      402.67666      311.61588      714.29254     -796.60704      3956.8289      1.670832     
    121000   320.43316      421.49832      347.67474      769.17305      7968.9929      3905.0939      1.6929673    
    122000   294.52933      413.84939      319.5687       733.4181      -1197.6544      3956.079       1.6711487    
    123000   289.2787       423.10166      313.87169      736.97335      2350.6173      3976.3627      1.6626241    
    124000   304.02092      394.04611      329.86721      723.91332      219.02372      3946.7079      1.6751167    
    125000   282.17338      390.3765       306.16231      696.53882     -1935.569       3970.4053      1.6651188    
    126000   304.16889      408.17086      330.02776      738.19862      4356.0634      3962.6444      1.6683799    
    127000   311.1924       398.50589      337.64837      736.15426      206.79196      3939.9873      1.677974     
    128000   305.89955      453.56439      331.90555      785.46994     -3128.0047      3959.0972      1.6698747    
    129000   315.12122      393.07642      341.9112       734.98762      2824.3356      3949.837       1.6737897    
    130000   301.81436      420.87025      327.47306      748.34331      49.842581      3929.2901      1.6825422    
    131000   326.59439      379.08861      354.35977      733.44837     -2728.2845      3966.7876      1.6666373    
    132000   300.52962      425.42231      326.0791       751.50141     -8987.4173      3971.7153      1.6645695    
    133000   282.28186      387.11623      306.28001      693.39624      4061.2432      3964.0171      1.6678022    
    134000   307.95756      384.89092      334.13852      719.02944     -1802.7806      3952.1411      1.6728138    
    135000   296.9121       418.07964      322.15404      740.23369     -1857.913       3957.012       1.6707547    
    136000   290.93017      411.14609      315.66356      726.80965     -1385.0385      3958.5688      1.6700976    
    137000   310.46621      382.96367      336.86045      719.82412      3663.1217      3938.1369      1.6787624    
    138000   299.38194      419.3357       324.83386      744.16955     -7402.7494      3956.05        1.6711609    
    139000   333.43368      395.23565      361.78049      757.01614      460.91277      3965.1875      1.6673099    
    140000   312.55422      370.55614      339.12597      709.68211     -4594.3681      3980.468       1.6609093    
    141000   313.15435      401.33787      339.77713      741.11499     -353.51404      3952.8008      1.6725347    
    142000   290.87315      417.04992      315.60169      732.65161     -1515.3202      3958.7041      1.6700405    
    143000   330.34836      403.92253      358.43287      762.3554       5726.8176      3937.371       1.679089     
    144000   295.44036      401.83138      320.55718      722.38855      2440.5194      3975.0134      1.6631884    
    145000   300.25424      418.0471       325.78031      743.82741      5717.6197      3930.4155      1.6820604    
    146000   283.24187      410.72333      307.32163      718.04496     -1504.02        3979.9379      1.6611305    
    147000   275.46137      416.39463      298.87967      715.2743      -4197.3561      3997.1052      1.6539961    
    148000   295.08794      429.26251      320.1748       749.4373       2584.7808      3957.1091      1.6707137    
    149000   296.77219      392.9227       322.00224      714.92494      107.24871      3925.6489      1.6841028    
    150000   302.57772      409.00713      328.30133      737.30846      6811.5665      3939.7168      1.6780892    
    151000   273.87166      421.73187      297.15482      718.88669      97.854301      3960.1392      1.6694353    
    152000   278.92618      400.36785      302.63905      703.00691     -9942.5892      3982.649       1.6599997    
    153000   301.88508      392.68567      327.5498       720.23546      2727.7962      3920.3078      1.6863973    
    154000   292.92832      408.27227      317.83158      726.10385      519.64468      3930.4827      1.6820316    
    155000   281.40459      415.41711      305.32816      720.74527     -1684.8477      3955.4314      1.6714223    
    156000   314.23401      416.36031      340.94857      757.30888      4209.9553      3943.3529      1.6765419    
    157000   300.54112      411.60509      326.09158      737.69666     -8882.9547      3979.3102      1.6613926    
    158000   285.82532      397.80129      310.12472      707.92601     -2782.8518      3969.4127      1.6655351    
    159000   299.01462      416.4492       324.43531      740.88451      3491.6836      3954.9869      1.6716102    
    160000   336.29124      411.50104      364.88099      776.38204      152.59876      3974.3506      1.6634658    
    161000   290.92463      401.78773      315.65754      717.44527     -4046.7399      3935.6831      1.6798091    
    162000   309.08228      401.46195      335.35887      736.82082      2275.68        3933.0321      1.6809414    
    163000   274.65848      393.26936      298.00853      691.2779      -4948.4414      3937.0147      1.679241     
    164000   297.04358      408.11764      322.29669      730.41433      5699.184       3956.4943      1.6709733    
    165000   282.08769      418.78275      306.06934      724.85209     -1626.3712      3951.8566      1.6729342    
    166000   295.93824      405.14223      321.09738      726.23962      2891.6522      3959.7536      1.6695979    
    167000   309.10046      392.4342       335.37859      727.8128       10031.283      3946.4995      1.6752052    
    168000   294.62298      412.09188      319.67031      731.7622      -159.68875      3968.6147      1.66587      
    169000   295.71831      411.87343      320.85876      732.73219      3426.5681      3985.7439      1.6587108    
    170000   300.14894      385.56164      325.66606      711.2277       64.060876      3968.4883      1.6659231    
    171000   295.67998      429.02339      320.81717      749.84057      1174.0732      3977.5351      1.662134     
    172000   320.02522      421.06771      347.23211      768.29983     -4352.6992      4015.0821      1.6465906    
    173000   288.88294      408.76957      313.44229      722.21186     -5878.4974      4004.3817      1.6509905    
    174000   306.72202      432.62378      332.79795      765.42173     -6550.769       3986.2587      1.6584966    
    175000   289.32327      435.05103      313.92005      748.97107      767.67672      3944.2449      1.6761628    
    176000   307.21031      404.04701      333.32775      737.37476      3346.7315      3967.0855      1.6665122    
    177000   293.88832      418.03349      318.8732       736.90669      2340.8954      3962.5843      1.6684052    
    178000   280.95403      424.62432      304.83929      729.46361     -6639.5322      3989.2223      1.6572644    
    179000   301.12865      414.06142      326.72906      740.79048     -5383.5142      3979.1879      1.6614436    
    180000   308.82778      378.27576      335.08273      713.35848     -2213.138       3986.4803      1.6584044    
    181000   311.89016      426.66182      338.40546      765.06728     -6796.6782      3958.538       1.6701106    
    182000   302.08663      401.47052      327.76848      729.239        5772.2741      3924.6709      1.6845225    
    183000   302.85936      402.22008      328.6069       730.82698     -4671.8496      3986.9689      1.6582011    
    184000   324.37411      401.51511      351.95073      753.46585      4119.886       3964.0282      1.6677975    
    185000   315.80465      408.41573      342.65274      751.06847      2081.6786      3958.4821      1.6701342    
    186000   281.5583       415.97563      305.49494      721.47056     -5146.3641      3995.463       1.6546759    
    187000   304.52754      429.50979      330.4169       759.92669      744.1198       3942.7486      1.6767988    
    188000   283.9448       401.78445      308.08432      709.86878     -3277.8569      3992.7259      1.6558102    
    189000   299.5184       422.59837      324.98191      747.58029     -1144.3317      3985.9864      1.6586099    
    190000   328.64385      417.27791      356.58346      773.86137     -9580.6402      3994.4387      1.6551002    
    191000   294.44064      411.45226      319.47247      730.92473      905.96665      3934.8896      1.6801479    
    192000   344.14074      425.54823      373.39781      798.94604     -914.7316       3941.7524      1.6772226    
    193000   295.33986      407.68895      320.44814      728.13709     -4419.5475      3984.8598      1.6590788    
    194000   322.4142       408.48207      349.8242       758.30627     -810.6493       3978.8305      1.6615929    
    195000   316.44882      385.21929      343.35167      728.57097      305.25841      3967.5413      1.6663207    
    196000   304.43227      421.52631      330.31353      751.83985      449.92782      3982.9185      1.6598874    
    197000   278.90189      400.00584      302.6127       702.61854     -1215.1679      3965.5249      1.667168     
    198000   319.85151      382.60976      347.04365      729.6534       2459.7778      3949.9085      1.6737594    
    199000   321.97343      415.80354      349.34596      765.1495      -8028.6604      4001.0751      1.652355     
    200000   303.06875      392.32292      328.8341       721.15701     -1861.9454      3964.2661      1.6676974    
    200070   299.15042      408.35131      324.58266      732.93397     -1929.0475      3959.5468      1.6696851    
Loop time of 24.8851 on 1 procs for 100000 steps with 365 atoms

Performance: 347.196 ns/day, 0.069 hours/ns, 4018.470 timesteps/s, 1.467 Matom-step/s
99.8% CPU use with 1 MPI tasks x 1 OpenMP threads

MPI task timing breakdown:
Section |  min time  |  avg time  |  max time  |%varavg| %total
---------------------------------------------------------------
Pair    | 14.2       | 14.2       | 14.2       |   0.0 | 57.06
Bond    | 4.7725     | 4.7725     | 4.7725     |   0.0 | 19.18
Neigh   | 3.948      | 3.948      | 3.948      |   0.0 | 15.87
Comm    | 0.53573    | 0.53573    | 0.53573    |   0.0 |  2.15
Output  | 0.52027    | 0.52027    | 0.52027    |   0.0 |  2.09
Modify  | 0.77086    | 0.77086    | 0.77086    |   0.0 |  3.10
Other   |            | 0.1382     |            |       |  0.56

Nlocal:            365 ave         365 max         365 min
Histogram: 1 0 0 0 0 0 0 0 0 0
Nghost:           2255 ave        2255 max        2255 min
Histogram: 1 0 0 0 0 0 0 0 0 0
Neighs:          22926 ave       22926 max       22926 min
Histogram: 1 0 0 0 0 0 0 0 0 0

Total # of neighbors = 22926
Ave neighs/atom = 62.810959
Ave special neighs/atom = 6.1863014
Neighbor list builds = 1907
Dangerous builds = 0
unfix           npt_relax

# fix nvt_heat    all nvt temp 300 1000 ${thermal_damp}
# run 100000      # 100 picoseconds
# unfix           nvt_heat
#
# fix npt_heat    all npt temp 1000 1000 ${thermal_damp} iso 0 0 ${pressure_damp}
# run 100000      # 100 picoseconds
# unfix           npt_heat
#
# fix cooling_npt all npt temp 1000 300 ${thermal_damp} iso 0 0 ${pressure_damp}
# run 700000      # 700 picoseconds
# unfix           cooling_npt
#
# fix npt_final   all npt temp 300 300 ${thermal_damp} iso 0 0 100
# run 100000      # 100 picoseconds
# unfix           npt_final

# density computation
variable rho equal density
fix integrate  all npt temp ${temp} ${temp} ${thermal_damp} iso 0 0 ${pressure_damp}
fix integrate  all npt temp 300 ${temp} ${thermal_damp} iso 0 0 ${pressure_damp}
fix integrate  all npt temp 300 300 ${thermal_damp} iso 0 0 ${pressure_damp}
fix integrate  all npt temp 300 300 100.0 iso 0 0 ${pressure_damp}
fix integrate  all npt temp 300 300 100.0 iso 0 0 500.0
fix rho50k all ave/time 10 5000 50000 v_rho mode scalar ave one
run 50000
Generated 6 of 6 mixed pair_coeff terms from arithmetic mixing rule
WARNING: Inconsistent image flags
For more information see https://docs.lammps.org/err0027 (src/domain.cpp:1052)
Per MPI rank memory allocation (min/avg/max) = 17.48 | 17.48 | 17.48 Mbytes
   Step          Temp          PotEng         KinEng         TotEng         Press          Volume        Density    
    200070   299.15042      408.35131      324.58266      732.93397     -1929.0475      3959.5468      1.6696851    
    201000   288.08028      400.26971      312.57138      712.84109      681.34829      3970.2421      1.6651872    
    202000   293.54969      414.26617      318.50577      732.77194     -791.55069      3958.7272      1.6700308    
    203000   291.49241      396.85848      316.27359      713.13207      6936.3033      3923.2201      1.6851454    
    204000   285.44586      428.9265       309.713        738.6395       3942.7775      3961.5325      1.6688482    
    205000   307.62311      380.58803      333.77564      714.36367     -2431.3249      3983.6323      1.65959      
    206000   295.02609      404.54802      320.10769      724.6557      -2213.4572      3941.3867      1.6773782    
    207000   302.63264      408.79383      328.36091      737.15474      334.03123      3967.4704      1.6663505    
    208000   296.1872       378.9574       321.36751      700.32491      6597.1685      3949.8741      1.6737739    
    209000   316.10261      396.48359      342.97603      739.45963     -2013.5641      3976.1904      1.6626961    
    210000   301.56738      394.4807       327.20508      721.68578     -6317.1078      3976.4091      1.6626046    
    211000   302.82519      406.29797      328.56984      734.86781     -4674.5983      3963.6686      1.6679488    
    212000   273.94434      418.17799      297.23368      715.41167      657.64174      3981.4572      1.6604967    
    213000   317.42157      397.47745      344.40711      741.88457     -3270.7845      3984.9142      1.6590561    
    214000   293.80697      385.30156      318.78493      704.08649     -4428.0026      3990.2063      1.6568558    
    215000   302.48043      408.65056      328.19576      736.84632      2707.5443      3926.5671      1.683709     
    216000   279.61317      416.63279      303.38444      720.01723     -2131.1336      3998.9613      1.6532284    
    217000   299.89208      398.87861      325.38736      724.26597      5503.458       3948.8187      1.6742213    
    218000   291.73413      413.60127      316.53586      730.13714      1681.4032      3997.3025      1.6539144    
    219000   309.54031      400.21399      335.85583      736.06982      791.08595      3936.6856      1.6793814    
    220000   317.38432      413.44178      344.36671      757.80848     -810.02194      3959.1386      1.6698572    
    221000   304.26836      398.95944      330.13569      729.09512      935.19086      3922.4899      1.6854591    
    222000   302.9759       425.40317      328.73335      754.13652     -1433.718       3977.9547      1.6619587    
    223000   294.7764       408.3888       319.83678      728.22558     -873.47988      3949.9554      1.6737395    
    224000   312.51881      426.94151      339.08755      766.02905      4215.3362      3942.6719      1.6768315    
    225000   289.57299      422.26576      314.19099      736.45676     -4196.8293      4012.3589      1.6477081    
    226000   308.2009       424.11302      334.40255      758.51557      3371.6756      3945.4766      1.6756395    
    227000   315.81606      392.70547      342.66511      735.37058      2468.4804      3959.5756      1.669673     
    228000   314.6346       394.62506      341.38322      736.00828      4179.2318      3927.4772      1.6833189    
    229000   336.15695      418.8275       364.73528      783.56278     -1670.0352      3992.5664      1.6558764    
    230000   285.82138      420.11171      310.12044      730.23215      833.70684      3953.0873      1.6724134    
    231000   296.1564       385.62999      321.33409      706.96408     -3163.7583      3994.145       1.6552219    
    232000   306.1399       416.15126      332.16634      748.3176       4783.1674      3974.9057      1.6632335    
    233000   274.30521      397.84413      297.62523      695.46936     -6719.6575      3958.5083      1.6701231    
    234000   303.15092      399.58945      328.92325      728.51271      373.88003      3963.5052      1.6680176    
    235000   310.9995       436.59239      337.43908      774.03147      3117.7891      3950.0832      1.6736853    
    236000   288.02033      408.89927      312.50634      721.40561      1439.0465      3925.8373      1.684022     
    237000   316.71457      414.53914      343.64001      758.17915      2697.3563      3950.187       1.6736414    
    238000   290.35978      408.32135      315.04468      723.36603     -6987.3646      3982.0614      1.6602447    
    239000   299.09108      411.06232      324.51826      735.58059     -1255.9522      3939.7122      1.6780912    
    240000   335.51871      422.59315      364.04279      786.63593      1139.154       3947.1252      1.6749396    
    241000   265.49892      433.9101       288.07028      721.98038      4569.8678      3925.5827      1.6841312    
    242000   313.45965      411.76494      340.10837      751.87331      4202.1225      3918.9528      1.6869804    
    243000   293.86378      407.82581      318.84656      726.67238     -5715.7914      3977.0751      1.6623263    
    244000   296.43111      407.73938      321.63216      729.37154      2044.0875      3918.3819      1.6872261    
    245000   324.22672      387.68407      351.79081      739.47488      1421.1479      3925.4838      1.6841736    
    246000   312.95791      445.49842      339.56398      785.0624      -286.67687      3951.1161      1.6732478    
    247000   289.66481      404.76082      314.29062      719.05144     -389.11494      3963.3431      1.6680858    
    248000   315.93779      424.50709      342.7972       767.30429      1994.0047      3961.7224      1.6687682    
    249000   301.33618      424.19649      326.95424      751.15073     -1350.1956      3976.2209      1.6626834    
    250000   291.89182      408.09268      316.70696      724.79963      1249.5335      4002.8951      1.6516037    
    250070   300.35863      429.16289      325.89357      755.05646      2053.9418      3958.2923      1.6702143    
Loop time of 12.8095 on 1 procs for 50000 steps with 365 atoms

Performance: 337.249 ns/day, 0.071 hours/ns, 3903.341 timesteps/s, 1.425 Matom-step/s
99.7% CPU use with 1 MPI tasks x 1 OpenMP threads

MPI task timing breakdown:
Section |  min time  |  avg time  |  max time  |%varavg| %total
---------------------------------------------------------------
Pair    | 7.2592     | 7.2592     | 7.2592     |   0.0 | 56.67
Bond    | 2.4458     | 2.4458     | 2.4458     |   0.0 | 19.09
Neigh   | 2.0883     | 2.0883     | 2.0883     |   0.0 | 16.30
Comm    | 0.27723    | 0.27723    | 0.27723    |   0.0 |  2.16
Output  | 0.27054    | 0.27054    | 0.27054    |   0.0 |  2.11
Modify  | 0.39657    | 0.39657    | 0.39657    |   0.0 |  3.10
Other   |            | 0.07186    |            |       |  0.56

Nlocal:            365 ave         365 max         365 min
Histogram: 1 0 0 0 0 0 0 0 0 0
Nghost:           2243 ave        2243 max        2243 min
Histogram: 1 0 0 0 0 0 0 0 0 0
Neighs:          22799 ave       22799 max       22799 min
Histogram: 1 0 0 0 0 0 0 0 0 0

Total # of neighbors = 22799
Ave neighs/atom = 62.463014
Ave special neighs/atom = 6.1863014
Neighbor list builds = 982
Dangerous builds = 0
unfix integrate
unfix rho50k

# Compute initial state
fix 3 all box/relax  aniso 0.0
minimize ${etol} ${ftol} ${maxiter} ${maxeval}
minimize 0 ${ftol} ${maxiter} ${maxeval}
minimize 0 1e-10 ${maxiter} ${maxeval}
minimize 0 1e-10 100000 ${maxeval}
minimize 0 1e-10 100000 100000
Generated 6 of 6 mixed pair_coeff terms from arithmetic mixing rule
WARNING: Energy due to 3 extra global DOFs will be included in minimizer energies
 (src/min.cpp:222)
WARNING: Inconsistent image flags
For more information see https://docs.lammps.org/err0027 (src/domain.cpp:1052)
Per MPI rank memory allocation (min/avg/max) = 18.59 | 18.59 | 18.59 Mbytes
   Step          Temp          PotEng         KinEng         TotEng         Press          Volume        Density    
    250070   300.35863      429.16289      325.89357      755.05646      2053.9418      3958.2923      1.6702143    
    250355   300.35863      193.94398      325.89357      519.83755      3506.447       3962.7382      1.6683404    
Loop time of 0.0929038 on 1 procs for 285 steps with 365 atoms

100.0% CPU use with 1 MPI tasks x 1 OpenMP threads

Minimization stats:
  Stopping criterion = linesearch alpha is zero
  Energy initial, next-to-last, final = 
      429.162890588309   193.943976176082   193.943976176082
  Force two-norm initial, final = 744.2224 132.12984
  Force max component initial, final = 348.83664 18.562301
  Final line search alpha, max atom move = 4.0081798e-13 7.4401039e-12
  Iterations, force evaluations = 285 314

MPI task timing breakdown:
Section |  min time  |  avg time  |  max time  |%varavg| %total
---------------------------------------------------------------
Pair    | 0.061098   | 0.061098   | 0.061098   |   0.0 | 65.76
Bond    | 0.018182   | 0.018182   | 0.018182   |   0.0 | 19.57
Neigh   | 0          | 0          | 0          |   0.0 |  0.00
Comm    | 0.001765   | 0.001765   | 0.001765   |   0.0 |  1.90
Output  | 0.001861   | 0.001861   | 0.001861   |   0.0 |  2.00
Modify  | 0          | 0          | 0          |   0.0 |  0.00
Other   |            | 0.009998   |            |       | 10.76

Nlocal:            365 ave         365 max         365 min
Histogram: 1 0 0 0 0 0 0 0 0 0
Nghost:           2259 ave        2259 max        2259 min
Histogram: 1 0 0 0 0 0 0 0 0 0
Neighs:          22854 ave       22854 max       22854 min
Histogram: 1 0 0 0 0 0 0 0 0 0

Total # of neighbors = 22854
Ave neighs/atom = 62.613699
Ave special neighs/atom = 6.1863014
Neighbor list builds = 0
Dangerous builds = 0

variable tmp equal pxx
variable pxx0 equal ${tmp}
variable pxx0 equal 3483.60553750964
variable tmp equal pyy
variable pyy0 equal ${tmp}
variable pyy0 equal 3356.78900932421
variable tmp equal pzz
variable pzz0 equal ${tmp}
variable pzz0 equal 3678.94653493225
variable tmp equal pyz
variable pyz0 equal ${tmp}
variable pyz0 equal -2665.89637556696
variable tmp equal pxz
variable pxz0 equal ${tmp}
variable pxz0 equal 54.6099565590366
variable tmp equal pxy
variable pxy0 equal ${tmp}
variable pxy0 equal 226.601211735752

variable tmp equal lx
variable lx0 equal ${tmp}
variable lx0 equal 15.6972227834823
variable tmp equal ly
variable ly0 equal ${tmp}
variable ly0 equal 14.2595986237947
variable tmp equal lz
variable lz0 equal ${tmp}
variable lz0 equal 17.703749615894

# These formulas define the derivatives w.r.t. strain components
# Constants uses $, variables use v_
variable d1 equal -(v_pxx1-${pxx0})/(v_delta/v_len0)*${cfac}
variable d1 equal -(v_pxx1-3483.60553750964)/(v_delta/v_len0)*${cfac}
variable d1 equal -(v_pxx1-3483.60553750964)/(v_delta/v_len0)*0.0001
variable d2 equal -(v_pyy1-${pyy0})/(v_delta/v_len0)*${cfac}
variable d2 equal -(v_pyy1-3356.78900932421)/(v_delta/v_len0)*${cfac}
variable d2 equal -(v_pyy1-3356.78900932421)/(v_delta/v_len0)*0.0001
variable d3 equal -(v_pzz1-${pzz0})/(v_delta/v_len0)*${cfac}
variable d3 equal -(v_pzz1-3678.94653493225)/(v_delta/v_len0)*${cfac}
variable d3 equal -(v_pzz1-3678.94653493225)/(v_delta/v_len0)*0.0001
variable d4 equal -(v_pyz1-${pyz0})/(v_delta/v_len0)*${cfac}
variable d4 equal -(v_pyz1--2665.89637556696)/(v_delta/v_len0)*${cfac}
variable d4 equal -(v_pyz1--2665.89637556696)/(v_delta/v_len0)*0.0001
variable d5 equal -(v_pxz1-${pxz0})/(v_delta/v_len0)*${cfac}
variable d5 equal -(v_pxz1-54.6099565590366)/(v_delta/v_len0)*${cfac}
variable d5 equal -(v_pxz1-54.6099565590366)/(v_delta/v_len0)*0.0001
variable d6 equal -(v_pxy1-${pxy0})/(v_delta/v_len0)*${cfac}
variable d6 equal -(v_pxy1-226.601211735752)/(v_delta/v_len0)*${cfac}
variable d6 equal -(v_pxy1-226.601211735752)/(v_delta/v_len0)*0.0001

# displace_atoms all random ${atomjiggle} ${atomjiggle} ${atomjiggle} 87287 units box

# Write restart
unfix 3
write_restart restart_333U-50C-26-vasp.equil
System init for write_restart ...
Generated 6 of 6 mixed pair_coeff terms from arithmetic mixing rule

# uxx Perturbation

variable dir equal 1
include ./input/displace_333U-50C-26-vasp.mod
if "${dir} == 1" then    "variable len0 equal ${lx0}"
variable len0 equal ${lx0}
variable len0 equal 15.6972227834823
if "${dir} == 2" then    "variable len0 equal ${ly0}"
if "${dir} == 3" then    "variable len0 equal ${lz0}"
if "${dir} == 4" then    "variable len0 equal ${lz0}"
if "${dir} == 5" then    "variable len0 equal ${lz0}"
if "${dir} == 6" then    "variable len0 equal ${ly0}"

# Reset box and simulation parameters

clear
OMP_NUM_THREADS environment is not set. Defaulting to 1 thread.
  using 1 OpenMP thread(s) per MPI task
box tilt large

The 'box' command has been removed and will be ignored

read_restart restart_333U-50C-26-vasp.equil
Reading restart file ...
  restart file = 10 Sep 2025, LAMMPS = 10 Sep 2025
  restoring atom style full from restart
  triclinic box = (-0.085405392 -0.077652312 -0.11979731) to (15.611817 14.181946 17.583952) with tilt (-7.0109691 2.1166457 0.89157417)
  1 by 1 by 1 MPI processor grid
  restoring pair style lj/cut from restart
  restoring bond style harmonic from restart
  restoring angle style hybrid from restart
  restoring dihedral style harmonic from restart
  365 atoms
  390 bonds
  739 angles
  924 dihedrals
Finding 1-2 1-3 1-4 neighbors ...
  special bond factors lj:    0        0        1       
  special bond factors coul:  0        0        1       
     4 = max # of 1-2 neighbors
     8 = max # of 1-3 neighbors
    12 = max # of special neighbors
  special bonds CPU = 0.000 seconds
  read_restart CPU = 0.002 seconds
include ./input/angles_333U-50C-26-vasp.mod
angle_style hybrid fourier cosine/periodic
angle_coeff 1 fourier 157.882480        0.343737        0.374972        0.281246
angle_coeff 2 fourier 221.735285        0.343737        0.374972        0.281246
angle_coeff 3 fourier 83.380072        0.343737        0.374972        0.281246
angle_coeff 4 fourier 32.417871        0.343737        0.374972        0.281246
angle_coeff 5 fourier 114.246973        0.343737        0.374972        0.281246
angle_coeff 6 fourier 58.020602        0.343737        0.374972        0.281246
angle_coeff 7 fourier 90.420412        0.343737        0.374972        0.281246
angle_coeff 8 fourier 75.498766        0.343737        0.374972        0.281246
angle_coeff 9 cosine/periodic 88.853997              -1               3

# Negative deformation

variable delta equal -${up}*${len0}
variable delta equal -0.02*${len0}
variable delta equal -0.02*15.6972227834823
variable deltaxy equal -${up}*xy
variable deltaxy equal -0.02*xy
variable deltaxz equal -${up}*xz
variable deltaxz equal -0.02*xz
variable deltayz equal -${up}*yz
variable deltayz equal -0.02*yz
if "${dir} == 1" then    "change_box all x delta 0 ${delta} xy delta ${deltaxy} xz delta ${deltaxz} remap units box"
change_box all x delta 0 ${delta} xy delta ${deltaxy} xz delta ${deltaxz} remap units box
change_box all x delta 0 -0.313944455669646 xy delta ${deltaxy} xz delta ${deltaxz} remap units box
change_box all x delta 0 -0.313944455669646 xy delta 0.140219382086268 xz delta ${deltaxz} remap units box
change_box all x delta 0 -0.313944455669646 xy delta 0.140219382086268 xz delta -0.0423329147021269 remap units box
Changing box ...
  triclinic box = (-0.085405392 -0.077652312 -0.11979731) to (15.297873 14.181946 17.583952) with tilt (-7.0109691 2.1166457 0.89157417)
  triclinic box = (-0.085405392 -0.077652312 -0.11979731) to (15.297873 14.181946 17.583952) with tilt (-6.8707497 2.1166457 0.89157417)
  triclinic box = (-0.085405392 -0.077652312 -0.11979731) to (15.297873 14.181946 17.583952) with tilt (-6.8707497 2.0743128 0.89157417)
if "${dir} == 2" then    "change_box all y delta 0 ${delta} yz delta ${deltayz} remap units box"
if "${dir} == 3" then    "change_box all z delta 0 ${delta} remap units box"
if "${dir} == 4" then    "change_box all yz delta ${delta} remap units box"
if "${dir} == 5" then    "change_box all xz delta ${delta} remap units box"
if "${dir} == 6" then    "change_box all xy delta ${delta} remap units box"

# Relax atoms positions

minimize ${etol} ${ftol} ${maxiter} ${maxeval}
minimize 0 ${ftol} ${maxiter} ${maxeval}
minimize 0 1e-10 ${maxiter} ${maxeval}
minimize 0 1e-10 100000 ${maxeval}
minimize 0 1e-10 100000 100000
Generated 6 of 6 mixed pair_coeff terms from arithmetic mixing rule
Neighbor list info ...
  update: every = 1 steps, delay = 0 steps, check = yes
  max neighbors/atom: 2000, page size: 100000
  master list distance cutoff = 7
  ghost atom cutoff = 7
  binsize = 3.5, bins = 7 5 6
  1 neighbor lists, perpetual/occasional/extra = 1 0 0
  (1) pair lj/cut, perpetual
      attributes: half, newton on
      pair build: half/bin/newton/tri
      stencil: half/bin/3d/tri
      bin: standard
WARNING: Inconsistent image flags
For more information see https://docs.lammps.org/err0027 (src/domain.cpp:1052)
Per MPI rank memory allocation (min/avg/max) = 17.52 | 17.52 | 17.52 Mbytes
   Step          Temp          E_pair         E_mol          TotEng         Press     
    250355   300.35863     -402.90936      628.61818      551.60239      29838.41     
    250407   300.35863     -425.63758      511.33624      411.59223      8657.9393    
Loop time of 0.0426543 on 1 procs for 52 steps with 365 atoms

100.0% CPU use with 1 MPI tasks x 1 OpenMP threads

Minimization stats:
  Stopping criterion = linesearch alpha is zero
  Energy initial, next-to-last, final = 
      225.708819899431   85.6986542833286   85.6986542833284
  Force two-norm initial, final = 217.52807 13.691392
  Force max component initial, final = 25.485074 2.2312866
  Final line search alpha, max atom move = 5.7243997e-11 1.2772776e-10
  Iterations, force evaluations = 52 157

MPI task timing breakdown:
Section |  min time  |  avg time  |  max time  |%varavg| %total
---------------------------------------------------------------
Pair    | 0.030558   | 0.030558   | 0.030558   |   0.0 | 71.64
Bond    | 0.0077244  | 0.0077244  | 0.0077244  |   0.0 | 18.11
Neigh   | 0.0027085  | 0.0027085  | 0.0027085  |   0.0 |  6.35
Comm    | 0.00093276 | 0.00093276 | 0.00093276 |   0.0 |  2.19
Output  | 0          | 0          | 0          |   0.0 |  0.00
Modify  | 0          | 0          | 0          |   0.0 |  0.00
Other   |            | 0.0007305  |            |       |  1.71

Nlocal:            365 ave         365 max         365 min
Histogram: 1 0 0 0 0 0 0 0 0 0
Nghost:           2275 ave        2275 max        2275 min
Histogram: 1 0 0 0 0 0 0 0 0 0
Neighs:          23350 ave       23350 max       23350 min
Histogram: 1 0 0 0 0 0 0 0 0 0

Total # of neighbors = 23350
Ave neighs/atom = 63.972603
Ave special neighs/atom = 6.1863014
Neighbor list builds = 1
Dangerous builds = 0

# Obtain new stress tensor

variable tmp equal pxx
variable pxx1 equal ${tmp}
variable pxx1 equal 15644.3800285157
variable tmp equal pyy
variable pyy1 equal ${tmp}
variable pyy1 equal 3091.43808609292
variable tmp equal pzz
variable pzz1 equal ${tmp}
variable pzz1 equal 7237.999862732
variable tmp equal pxy
variable pxy1 equal ${tmp}
variable pxy1 equal 909.535281061427
variable tmp equal pxz
variable pxz1 equal ${tmp}
variable pxz1 equal 1190.80048668031
variable tmp equal pyz
variable pyz1 equal ${tmp}
variable pyz1 equal -1389.85127957027

# Compute elastic constant from pressure tensor

variable C1neg equal ${d1}
variable C1neg equal 60.8038724550303
variable C2neg equal ${d2}
variable C2neg equal -1.32675461615645
variable C3neg equal ${d3}
variable C3neg equal 17.7952666389988
variable C4neg equal ${d4}
variable C4neg equal 6.38022547998345
variable C5neg equal ${d5}
variable C5neg equal 5.68095265060637
variable C6neg equal ${d6}
variable C6neg equal 3.41467034662837

# Reset box and simulation parameters

clear
OMP_NUM_THREADS environment is not set. Defaulting to 1 thread.
  using 1 OpenMP thread(s) per MPI task
box tilt large

The 'box' command has been removed and will be ignored

read_restart restart_333U-50C-26-vasp.equil
Reading restart file ...
  restart file = 10 Sep 2025, LAMMPS = 10 Sep 2025
  restoring atom style full from restart
  triclinic box = (-0.085405392 -0.077652312 -0.11979731) to (15.611817 14.181946 17.583952) with tilt (-7.0109691 2.1166457 0.89157417)
  1 by 1 by 1 MPI processor grid
  restoring pair style lj/cut from restart
  restoring bond style harmonic from restart
  restoring angle style hybrid from restart
  restoring dihedral style harmonic from restart
  365 atoms
  390 bonds
  739 angles
  924 dihedrals
Finding 1-2 1-3 1-4 neighbors ...
  special bond factors lj:    0        0        1       
  special bond factors coul:  0        0        1       
     4 = max # of 1-2 neighbors
     8 = max # of 1-3 neighbors
    12 = max # of special neighbors
  special bonds CPU = 0.000 seconds
  read_restart CPU = 0.002 seconds
include ./input/angles_333U-50C-26-vasp.mod
angle_style hybrid fourier cosine/periodic
angle_coeff 1 fourier 157.882480        0.343737        0.374972        0.281246
angle_coeff 2 fourier 221.735285        0.343737        0.374972        0.281246
angle_coeff 3 fourier 83.380072        0.343737        0.374972        0.281246
angle_coeff 4 fourier 32.417871        0.343737        0.374972        0.281246
angle_coeff 5 fourier 114.246973        0.343737        0.374972        0.281246
angle_coeff 6 fourier 58.020602        0.343737        0.374972        0.281246
angle_coeff 7 fourier 90.420412        0.343737        0.374972        0.281246
angle_coeff 8 fourier 75.498766        0.343737        0.374972        0.281246
angle_coeff 9 cosine/periodic 88.853997              -1               3

# Positive deformation

variable delta equal ${up}*${len0}
variable delta equal 0.02*${len0}
variable delta equal 0.02*15.6972227834823
variable deltaxy equal ${up}*xy
variable deltaxy equal 0.02*xy
variable deltaxz equal ${up}*xz
variable deltaxz equal 0.02*xz
variable deltayz equal ${up}*yz
variable deltayz equal 0.02*yz
if "${dir} == 1" then    "change_box all x delta 0 ${delta} xy delta ${deltaxy} xz delta ${deltaxz} remap units box"
change_box all x delta 0 ${delta} xy delta ${deltaxy} xz delta ${deltaxz} remap units box
change_box all x delta 0 0.313944455669646 xy delta ${deltaxy} xz delta ${deltaxz} remap units box
change_box all x delta 0 0.313944455669646 xy delta -0.140219382086268 xz delta ${deltaxz} remap units box
change_box all x delta 0 0.313944455669646 xy delta -0.140219382086268 xz delta 0.0423329147021269 remap units box
Changing box ...
  triclinic box = (-0.085405392 -0.077652312 -0.11979731) to (15.925762 14.181946 17.583952) with tilt (-7.0109691 2.1166457 0.89157417)
WARNING: Triclinic box skew is large. LAMMPS will run inefficiently. (src/domain.cpp:221)
  triclinic box = (-0.085405392 -0.077652312 -0.11979731) to (15.925762 14.181946 17.583952) with tilt (-7.1511885 2.1166457 0.89157417)
WARNING: Triclinic box skew is large. LAMMPS will run inefficiently. (src/domain.cpp:221)
  triclinic box = (-0.085405392 -0.077652312 -0.11979731) to (15.925762 14.181946 17.583952) with tilt (-7.1511885 2.1589786 0.89157417)
if "${dir} == 2" then    "change_box all y delta 0 ${delta} yz delta ${deltayz} remap units box"
if "${dir} == 3" then    "change_box all z delta 0 ${delta} remap units box"
if "${dir} == 4" then    "change_box all yz delta ${delta} remap units box"
if "${dir} == 5" then    "change_box all xz delta ${delta} remap units box"
if "${dir} == 6" then    "change_box all xy delta ${delta} remap units box"

# Relax atoms positions

minimize ${etol} ${ftol} ${maxiter} ${maxeval}
minimize 0 ${ftol} ${maxiter} ${maxeval}
minimize 0 1e-10 ${maxiter} ${maxeval}
minimize 0 1e-10 100000 ${maxeval}
minimize 0 1e-10 100000 100000
Generated 6 of 6 mixed pair_coeff terms from arithmetic mixing rule
Neighbor list info ...
  update: every = 1 steps, delay = 0 steps, check = yes
  max neighbors/atom: 2000, page size: 100000
  master list distance cutoff = 7
  ghost atom cutoff = 7
  binsize = 3.5, bins = 8 5 6
  1 neighbor lists, perpetual/occasional/extra = 1 0 0
  (1) pair lj/cut, perpetual
      attributes: half, newton on
      pair build: half/bin/newton/tri
      stencil: half/bin/3d/tri
      bin: standard
WARNING: Inconsistent image flags
For more information see https://docs.lammps.org/err0027 (src/domain.cpp:1052)
Per MPI rank memory allocation (min/avg/max) = 17.52 | 17.52 | 17.52 Mbytes
   Step          Temp          E_pair         E_mol          TotEng         Press     
    250355   300.35863     -444.87489      671.20959      552.22827     -21819.09     
    250410   300.35863     -457.10705      547.81827      416.6048      -6697.1163    
Loop time of 0.0401152 on 1 procs for 55 steps with 365 atoms

100.0% CPU use with 1 MPI tasks x 1 OpenMP threads

Minimization stats:
  Stopping criterion = linesearch alpha is zero
  Energy initial, next-to-last, final = 
      226.334700255883   90.7112258713792   90.7112258713792
  Force two-norm initial, final = 220.66541 9.8243306
  Force max component initial, final = 25.946299 1.6746403
  Final line search alpha, max atom move = 9.2761744e-11 1.5534255e-10
  Iterations, force evaluations = 55 163

MPI task timing breakdown:
Section |  min time  |  avg time  |  max time  |%varavg| %total
---------------------------------------------------------------
Pair    | 0.030413   | 0.030413   | 0.030413   |   0.0 | 75.81
Bond    | 0.0080741  | 0.0080741  | 0.0080741  |   0.0 | 20.13
Neigh   | 0          | 0          | 0          |   0.0 |  0.00
Comm    | 0.00089204 | 0.00089204 | 0.00089204 |   0.0 |  2.22
Output  | 0          | 0          | 0          |   0.0 |  0.00
Modify  | 0          | 0          | 0          |   0.0 |  0.00
Other   |            | 0.0007357  |            |       |  1.83

Nlocal:            365 ave         365 max         365 min
Histogram: 1 0 0 0 0 0 0 0 0 0
Nghost:           2229 ave        2229 max        2229 min
Histogram: 1 0 0 0 0 0 0 0 0 0
Neighs:          22401 ave       22401 max       22401 min
Histogram: 1 0 0 0 0 0 0 0 0 0

Total # of neighbors = 22401
Ave neighs/atom = 61.372603
Ave special neighs/atom = 6.1863014
Neighbor list builds = 0
Dangerous builds = 0

# Obtain new stress tensor

variable tmp equal pe
variable e1 equal ${tmp}
variable e1 equal 90.7112258713792
variable tmp equal press
variable p1 equal ${tmp}
variable p1 equal -6697.11627796959
variable tmp equal pxx
variable pxx1 equal ${tmp}
variable pxx1 equal -11755.9760147233
variable tmp equal pyy
variable pyy1 equal ${tmp}
variable pyy1 equal -6270.22588144707
variable tmp equal pzz
variable pzz1 equal ${tmp}
variable pzz1 equal -2065.14693773845
variable tmp equal pxy
variable pxy1 equal ${tmp}
variable pxy1 equal 2135.683111804
variable tmp equal pxz
variable pxz1 equal ${tmp}
variable pxz1 equal 934.49148993707
variable tmp equal pyz
variable pyz1 equal ${tmp}
variable pyz1 equal -1242.66648955074

# Compute elastic constant from pressure tensor

variable C1pos equal ${d1}
variable C1pos equal 76.1979077611647
variable C2pos equal ${d2}
variable C2pos equal 48.1350744538564
variable C3pos equal ${d3}
variable C3pos equal 28.7204673633535
variable C4pos equal ${d4}
variable C4pos equal -7.1161494300811
variable C5pos equal ${d5}
variable C5pos equal -4.39940766689017
variable C6pos equal ${d6}
variable C6pos equal -9.54540950034124

# Combine positive and negative

variable C1${dir} equal 0.5*(${C1neg}+${C1pos})
variable C11 equal 0.5*(${C1neg}+${C1pos})
variable C11 equal 0.5*(60.8038724550303+${C1pos})
variable C11 equal 0.5*(60.8038724550303+76.1979077611647)
variable C2${dir} equal 0.5*(${C2neg}+${C2pos})
variable C21 equal 0.5*(${C2neg}+${C2pos})
variable C21 equal 0.5*(-1.32675461615645+${C2pos})
variable C21 equal 0.5*(-1.32675461615645+48.1350744538564)
variable C3${dir} equal 0.5*(${C3neg}+${C3pos})
variable C31 equal 0.5*(${C3neg}+${C3pos})
variable C31 equal 0.5*(17.7952666389988+${C3pos})
variable C31 equal 0.5*(17.7952666389988+28.7204673633535)
variable C4${dir} equal 0.5*(${C4neg}+${C4pos})
variable C41 equal 0.5*(${C4neg}+${C4pos})
variable C41 equal 0.5*(6.38022547998345+${C4pos})
variable C41 equal 0.5*(6.38022547998345+-7.1161494300811)
variable C5${dir} equal 0.5*(${C5neg}+${C5pos})
variable C51 equal 0.5*(${C5neg}+${C5pos})
variable C51 equal 0.5*(5.68095265060637+${C5pos})
variable C51 equal 0.5*(5.68095265060637+-4.39940766689017)
variable C6${dir} equal 0.5*(${C6neg}+${C6pos})
variable C61 equal 0.5*(${C6neg}+${C6pos})
variable C61 equal 0.5*(3.41467034662837+${C6pos})
variable C61 equal 0.5*(3.41467034662837+-9.54540950034124)

# Delete dir to make sure it is not reused

variable dir delete

# uyy Perturbation

variable dir equal 2
include ./input/displace_333U-50C-26-vasp.mod
if "${dir} == 1" then    "variable len0 equal ${lx0}"
if "${dir} == 2" then    "variable len0 equal ${ly0}"
variable len0 equal ${ly0}
variable len0 equal 14.2595986237947
if "${dir} == 3" then    "variable len0 equal ${lz0}"
if "${dir} == 4" then    "variable len0 equal ${lz0}"
if "${dir} == 5" then    "variable len0 equal ${lz0}"
if "${dir} == 6" then    "variable len0 equal ${ly0}"

# Reset box and simulation parameters

clear
OMP_NUM_THREADS environment is not set. Defaulting to 1 thread.
  using 1 OpenMP thread(s) per MPI task
box tilt large

The 'box' command has been removed and will be ignored

read_restart restart_333U-50C-26-vasp.equil
Reading restart file ...
  restart file = 10 Sep 2025, LAMMPS = 10 Sep 2025
  restoring atom style full from restart
  triclinic box = (-0.085405392 -0.077652312 -0.11979731) to (15.611817 14.181946 17.583952) with tilt (-7.0109691 2.1166457 0.89157417)
  1 by 1 by 1 MPI processor grid
  restoring pair style lj/cut from restart
  restoring bond style harmonic from restart
  restoring angle style hybrid from restart
  restoring dihedral style harmonic from restart
  365 atoms
  390 bonds
  739 angles
  924 dihedrals
Finding 1-2 1-3 1-4 neighbors ...
  special bond factors lj:    0        0        1       
  special bond factors coul:  0        0        1       
     4 = max # of 1-2 neighbors
     8 = max # of 1-3 neighbors
    12 = max # of special neighbors
  special bonds CPU = 0.000 seconds
  read_restart CPU = 0.002 seconds
include ./input/angles_333U-50C-26-vasp.mod
angle_style hybrid fourier cosine/periodic
angle_coeff 1 fourier 157.882480        0.343737        0.374972        0.281246
angle_coeff 2 fourier 221.735285        0.343737        0.374972        0.281246
angle_coeff 3 fourier 83.380072        0.343737        0.374972        0.281246
angle_coeff 4 fourier 32.417871        0.343737        0.374972        0.281246
angle_coeff 5 fourier 114.246973        0.343737        0.374972        0.281246
angle_coeff 6 fourier 58.020602        0.343737        0.374972        0.281246
angle_coeff 7 fourier 90.420412        0.343737        0.374972        0.281246
angle_coeff 8 fourier 75.498766        0.343737        0.374972        0.281246
angle_coeff 9 cosine/periodic 88.853997              -1               3

# Negative deformation

variable delta equal -${up}*${len0}
variable delta equal -0.02*${len0}
variable delta equal -0.02*14.2595986237947
variable deltaxy equal -${up}*xy
variable deltaxy equal -0.02*xy
variable deltaxz equal -${up}*xz
variable deltaxz equal -0.02*xz
variable deltayz equal -${up}*yz
variable deltayz equal -0.02*yz
if "${dir} == 1" then    "change_box all x delta 0 ${delta} xy delta ${deltaxy} xz delta ${deltaxz} remap units box"
if "${dir} == 2" then    "change_box all y delta 0 ${delta} yz delta ${deltayz} remap units box"
change_box all y delta 0 ${delta} yz delta ${deltayz} remap units box
change_box all y delta 0 -0.285191972475894 yz delta ${deltayz} remap units box
change_box all y delta 0 -0.285191972475894 yz delta -0.017831483306436 remap units box
Changing box ...
WARNING: Triclinic box skew is large. LAMMPS will run inefficiently. (src/domain.cpp:221)
  triclinic box = (-0.085405392 -0.077652312 -0.11979731) to (15.611817 13.896754 17.583952) with tilt (-7.0109691 2.1166457 0.89157417)
WARNING: Triclinic box skew is large. LAMMPS will run inefficiently. (src/domain.cpp:221)
  triclinic box = (-0.085405392 -0.077652312 -0.11979731) to (15.611817 13.896754 17.583952) with tilt (-7.0109691 2.1166457 0.87374268)
if "${dir} == 3" then    "change_box all z delta 0 ${delta} remap units box"
if "${dir} == 4" then    "change_box all yz delta ${delta} remap units box"
if "${dir} == 5" then    "change_box all xz delta ${delta} remap units box"
if "${dir} == 6" then    "change_box all xy delta ${delta} remap units box"

# Relax atoms positions

minimize ${etol} ${ftol} ${maxiter} ${maxeval}
minimize 0 ${ftol} ${maxiter} ${maxeval}
minimize 0 1e-10 ${maxiter} ${maxeval}
minimize 0 1e-10 100000 ${maxeval}
minimize 0 1e-10 100000 100000
Generated 6 of 6 mixed pair_coeff terms from arithmetic mixing rule
Neighbor list info ...
  update: every = 1 steps, delay = 0 steps, check = yes
  max neighbors/atom: 2000, page size: 100000
  master list distance cutoff = 7
  ghost atom cutoff = 7
  binsize = 3.5, bins = 8 5 6
  1 neighbor lists, perpetual/occasional/extra = 1 0 0
  (1) pair lj/cut, perpetual
      attributes: half, newton on
      pair build: half/bin/newton/tri
      stencil: half/bin/3d/tri
      bin: standard
WARNING: Inconsistent image flags
For more information see https://docs.lammps.org/err0027 (src/domain.cpp:1052)
Per MPI rank memory allocation (min/avg/max) = 17.52 | 17.52 | 17.52 Mbytes
   Step          Temp          E_pair         E_mol          TotEng         Press     
    250355   300.35863     -402.65525      629.11227      552.35059      29974.114    
    250398   300.35863     -424.34549      508.02786      409.57594      9331.7079    
Loop time of 0.0358525 on 1 procs for 43 steps with 365 atoms

100.0% CPU use with 1 MPI tasks x 1 OpenMP threads

Minimization stats:
  Stopping criterion = linesearch alpha is zero
  Energy initial, next-to-last, final = 
      226.457020048598   83.6823659217316   83.6823659217316
  Force two-norm initial, final = 222.11817 14.42469
  Force max component initial, final = 23.993482 3.0576795
  Final line search alpha, max atom move = 3.3918706e-11 1.0371253e-10
  Iterations, force evaluations = 43 141

MPI task timing breakdown:
Section |  min time  |  avg time  |  max time  |%varavg| %total
---------------------------------------------------------------
Pair    | 0.027555   | 0.027555   | 0.027555   |   0.0 | 76.86
Bond    | 0.0068921  | 0.0068921  | 0.0068921  |   0.0 | 19.22
Neigh   | 0          | 0          | 0          |   0.0 |  0.00
Comm    | 0.00078056 | 0.00078056 | 0.00078056 |   0.0 |  2.18
Output  | 0          | 0          | 0          |   0.0 |  0.00
Modify  | 0          | 0          | 0          |   0.0 |  0.00
Other   |            | 0.0006246  |            |       |  1.74

Nlocal:            365 ave         365 max         365 min
Histogram: 1 0 0 0 0 0 0 0 0 0
Nghost:           2273 ave        2273 max        2273 min
Histogram: 1 0 0 0 0 0 0 0 0 0
Neighs:          23355 ave       23355 max       23355 min
Histogram: 1 0 0 0 0 0 0 0 0 0

Total # of neighbors = 23355
Ave neighs/atom = 63.986301
Ave special neighs/atom = 6.1863014
Neighbor list builds = 0
Dangerous builds = 0

# Obtain new stress tensor

variable tmp equal pxx
variable pxx1 equal ${tmp}
variable pxx1 equal 7937.00566388399
variable tmp equal pyy
variable pyy1 equal ${tmp}
variable pyy1 equal 11496.9303825421
variable tmp equal pzz
variable pzz1 equal ${tmp}
variable pzz1 equal 8561.18777049605
variable tmp equal pxy
variable pxy1 equal ${tmp}
variable pxy1 equal 1419.7055671734
variable tmp equal pxz
variable pxz1 equal ${tmp}
variable pxz1 equal 50.7623804359112
variable tmp equal pyz
variable pyz1 equal ${tmp}
variable pyz1 equal -1215.12491392762

# Compute elastic constant from pressure tensor

variable C1neg equal ${d1}
variable C1neg equal 22.2670006318717
variable C2neg equal ${d2}
variable C2neg equal 40.7007068660894
variable C3neg equal ${d3}
variable C3neg equal 24.411206177819
variable C4neg equal ${d4}
variable C4neg equal 7.2538573081967
variable C5neg equal ${d5}
variable C5neg equal -0.019237880615627
variable C6neg equal ${d6}
variable C6neg equal 5.96552177718824

# Reset box and simulation parameters

clear
OMP_NUM_THREADS environment is not set. Defaulting to 1 thread.
  using 1 OpenMP thread(s) per MPI task
box tilt large

The 'box' command has been removed and will be ignored

read_restart restart_333U-50C-26-vasp.equil
Reading restart file ...
  restart file = 10 Sep 2025, LAMMPS = 10 Sep 2025
  restoring atom style full from restart
  triclinic box = (-0.085405392 -0.077652312 -0.11979731) to (15.611817 14.181946 17.583952) with tilt (-7.0109691 2.1166457 0.89157417)
  1 by 1 by 1 MPI processor grid
  restoring pair style lj/cut from restart
  restoring bond style harmonic from restart
  restoring angle style hybrid from restart
  restoring dihedral style harmonic from restart
  365 atoms
  390 bonds
  739 angles
  924 dihedrals
Finding 1-2 1-3 1-4 neighbors ...
  special bond factors lj:    0        0        1       
  special bond factors coul:  0        0        1       
     4 = max # of 1-2 neighbors
     8 = max # of 1-3 neighbors
    12 = max # of special neighbors
  special bonds CPU = 0.000 seconds
  read_restart CPU = 0.001 seconds
include ./input/angles_333U-50C-26-vasp.mod
angle_style hybrid fourier cosine/periodic
angle_coeff 1 fourier 157.882480        0.343737        0.374972        0.281246
angle_coeff 2 fourier 221.735285        0.343737        0.374972        0.281246
angle_coeff 3 fourier 83.380072        0.343737        0.374972        0.281246
angle_coeff 4 fourier 32.417871        0.343737        0.374972        0.281246
angle_coeff 5 fourier 114.246973        0.343737        0.374972        0.281246
angle_coeff 6 fourier 58.020602        0.343737        0.374972        0.281246
angle_coeff 7 fourier 90.420412        0.343737        0.374972        0.281246
angle_coeff 8 fourier 75.498766        0.343737        0.374972        0.281246
angle_coeff 9 cosine/periodic 88.853997              -1               3

# Positive deformation

variable delta equal ${up}*${len0}
variable delta equal 0.02*${len0}
variable delta equal 0.02*14.2595986237947
variable deltaxy equal ${up}*xy
variable deltaxy equal 0.02*xy
variable deltaxz equal ${up}*xz
variable deltaxz equal 0.02*xz
variable deltayz equal ${up}*yz
variable deltayz equal 0.02*yz
if "${dir} == 1" then    "change_box all x delta 0 ${delta} xy delta ${deltaxy} xz delta ${deltaxz} remap units box"
if "${dir} == 2" then    "change_box all y delta 0 ${delta} yz delta ${deltayz} remap units box"
change_box all y delta 0 ${delta} yz delta ${deltayz} remap units box
change_box all y delta 0 0.285191972475894 yz delta ${deltayz} remap units box
change_box all y delta 0 0.285191972475894 yz delta 0.017831483306436 remap units box
Changing box ...
  triclinic box = (-0.085405392 -0.077652312 -0.11979731) to (15.611817 14.467138 17.583952) with tilt (-7.0109691 2.1166457 0.89157417)
  triclinic box = (-0.085405392 -0.077652312 -0.11979731) to (15.611817 14.467138 17.583952) with tilt (-7.0109691 2.1166457 0.90940565)
if "${dir} == 3" then    "change_box all z delta 0 ${delta} remap units box"
if "${dir} == 4" then    "change_box all yz delta ${delta} remap units box"
if "${dir} == 5" then    "change_box all xz delta ${delta} remap units box"
if "${dir} == 6" then    "change_box all xy delta ${delta} remap units box"

# Relax atoms positions

minimize ${etol} ${ftol} ${maxiter} ${maxeval}
minimize 0 ${ftol} ${maxiter} ${maxeval}
minimize 0 1e-10 ${maxiter} ${maxeval}
minimize 0 1e-10 100000 ${maxeval}
minimize 0 1e-10 100000 100000
Generated 6 of 6 mixed pair_coeff terms from arithmetic mixing rule
Neighbor list info ...
  update: every = 1 steps, delay = 0 steps, check = yes
  max neighbors/atom: 2000, page size: 100000
  master list distance cutoff = 7
  ghost atom cutoff = 7
  binsize = 3.5, bins = 8 5 6
  1 neighbor lists, perpetual/occasional/extra = 1 0 0
  (1) pair lj/cut, perpetual
      attributes: half, newton on
      pair build: half/bin/newton/tri
      stencil: half/bin/3d/tri
      bin: standard
WARNING: Inconsistent image flags
For more information see https://docs.lammps.org/err0027 (src/domain.cpp:1052)
Per MPI rank memory allocation (min/avg/max) = 17.52 | 17.52 | 17.52 Mbytes
   Step          Temp          E_pair         E_mol          TotEng         Press     
    250355   300.35863     -446.03647      671.64058      551.49768     -21999.165    
    250404   300.35863     -454.66406      547.97636      419.20587     -6580.9868    
Loop time of 0.0384351 on 1 procs for 49 steps with 365 atoms

100.0% CPU use with 1 MPI tasks x 1 OpenMP threads

Minimization stats:
  Stopping criterion = linesearch alpha is zero
  Energy initial, next-to-last, final = 
      225.604108402017   93.3122964639856   93.3122964639856
  Force two-norm initial, final = 217.52968 13.467704
  Force max component initial, final = 29.141608 1.6516352
  Final line search alpha, max atom move = 3.6956599e-11 6.1038821e-11
  Iterations, force evaluations = 49 153

MPI task timing breakdown:
Section |  min time  |  avg time  |  max time  |%varavg| %total
---------------------------------------------------------------
Pair    | 0.029234   | 0.029234   | 0.029234   |   0.0 | 76.06
Bond    | 0.0076534  | 0.0076534  | 0.0076534  |   0.0 | 19.91
Neigh   | 0          | 0          | 0          |   0.0 |  0.00
Comm    | 0.0008466  | 0.0008466  | 0.0008466  |   0.0 |  2.20
Output  | 0          | 0          | 0          |   0.0 |  0.00
Modify  | 0          | 0          | 0          |   0.0 |  0.00
Other   |            | 0.0007015  |            |       |  1.83

Nlocal:            365 ave         365 max         365 min
Histogram: 1 0 0 0 0 0 0 0 0 0
Nghost:           2225 ave        2225 max        2225 min
Histogram: 1 0 0 0 0 0 0 0 0 0
Neighs:          22374 ave       22374 max       22374 min
Histogram: 1 0 0 0 0 0 0 0 0 0

Total # of neighbors = 22374
Ave neighs/atom = 61.29863
Ave special neighs/atom = 6.1863014
Neighbor list builds = 0
Dangerous builds = 0

# Obtain new stress tensor

variable tmp equal pe
variable e1 equal ${tmp}
variable e1 equal 93.3122964639856
variable tmp equal press
variable p1 equal ${tmp}
variable p1 equal -6580.98679400623
variable tmp equal pxx
variable pxx1 equal ${tmp}
variable pxx1 equal -2686.44654893883
variable tmp equal pyy
variable pyy1 equal ${tmp}
variable pyy1 equal -13720.7565308187
variable tmp equal pzz
variable pzz1 equal ${tmp}
variable pzz1 equal -3335.75730226113
variable tmp equal pxy
variable pxy1 equal ${tmp}
variable pxy1 equal 2134.02829593394
variable tmp equal pxz
variable pxz1 equal ${tmp}
variable pxz1 equal 1847.85647977719
variable tmp equal pyz
variable pyz1 equal ${tmp}
variable pyz1 equal -1362.94334211605

# Compute elastic constant from pressure tensor

variable C1pos equal ${d1}
variable C1pos equal 30.8502604322423
variable C2pos equal ${d2}
variable C2pos equal 85.3877277007145
variable C3pos equal ${d3}
variable C3pos equal 35.0735191859669
variable C4pos equal ${d4}
variable C4pos equal -6.51476516725455
variable C5pos equal ${d5}
variable C5pos equal -8.96623261609077
variable C6pos equal ${d6}
variable C6pos equal -9.53713542099094

# Combine positive and negative

variable C1${dir} equal 0.5*(${C1neg}+${C1pos})
variable C12 equal 0.5*(${C1neg}+${C1pos})
variable C12 equal 0.5*(22.2670006318717+${C1pos})
variable C12 equal 0.5*(22.2670006318717+30.8502604322423)
variable C2${dir} equal 0.5*(${C2neg}+${C2pos})
variable C22 equal 0.5*(${C2neg}+${C2pos})
variable C22 equal 0.5*(40.7007068660894+${C2pos})
variable C22 equal 0.5*(40.7007068660894+85.3877277007145)
variable C3${dir} equal 0.5*(${C3neg}+${C3pos})
variable C32 equal 0.5*(${C3neg}+${C3pos})
variable C32 equal 0.5*(24.411206177819+${C3pos})
variable C32 equal 0.5*(24.411206177819+35.0735191859669)
variable C4${dir} equal 0.5*(${C4neg}+${C4pos})
variable C42 equal 0.5*(${C4neg}+${C4pos})
variable C42 equal 0.5*(7.2538573081967+${C4pos})
variable C42 equal 0.5*(7.2538573081967+-6.51476516725455)
variable C5${dir} equal 0.5*(${C5neg}+${C5pos})
variable C52 equal 0.5*(${C5neg}+${C5pos})
variable C52 equal 0.5*(-0.019237880615627+${C5pos})
variable C52 equal 0.5*(-0.019237880615627+-8.96623261609077)
variable C6${dir} equal 0.5*(${C6neg}+${C6pos})
variable C62 equal 0.5*(${C6neg}+${C6pos})
variable C62 equal 0.5*(5.96552177718824+${C6pos})
variable C62 equal 0.5*(5.96552177718824+-9.53713542099094)

# Delete dir to make sure it is not reused

variable dir delete

# uzz Perturbation

variable dir equal 3
include ./input/displace_333U-50C-26-vasp.mod
if "${dir} == 1" then    "variable len0 equal ${lx0}"
if "${dir} == 2" then    "variable len0 equal ${ly0}"
if "${dir} == 3" then    "variable len0 equal ${lz0}"
variable len0 equal ${lz0}
variable len0 equal 17.703749615894
if "${dir} == 4" then    "variable len0 equal ${lz0}"
if "${dir} == 5" then    "variable len0 equal ${lz0}"
if "${dir} == 6" then    "variable len0 equal ${ly0}"

# Reset box and simulation parameters

clear
OMP_NUM_THREADS environment is not set. Defaulting to 1 thread.
  using 1 OpenMP thread(s) per MPI task
box tilt large

The 'box' command has been removed and will be ignored

read_restart restart_333U-50C-26-vasp.equil
Reading restart file ...
  restart file = 10 Sep 2025, LAMMPS = 10 Sep 2025
  restoring atom style full from restart
  triclinic box = (-0.085405392 -0.077652312 -0.11979731) to (15.611817 14.181946 17.583952) with tilt (-7.0109691 2.1166457 0.89157417)
  1 by 1 by 1 MPI processor grid
  restoring pair style lj/cut from restart
  restoring bond style harmonic from restart
  restoring angle style hybrid from restart
  restoring dihedral style harmonic from restart
  365 atoms
  390 bonds
  739 angles
  924 dihedrals
Finding 1-2 1-3 1-4 neighbors ...
  special bond factors lj:    0        0        1       
  special bond factors coul:  0        0        1       
     4 = max # of 1-2 neighbors
     8 = max # of 1-3 neighbors
    12 = max # of special neighbors
  special bonds CPU = 0.000 seconds
  read_restart CPU = 0.001 seconds
include ./input/angles_333U-50C-26-vasp.mod
angle_style hybrid fourier cosine/periodic
angle_coeff 1 fourier 157.882480        0.343737        0.374972        0.281246
angle_coeff 2 fourier 221.735285        0.343737        0.374972        0.281246
angle_coeff 3 fourier 83.380072        0.343737        0.374972        0.281246
angle_coeff 4 fourier 32.417871        0.343737        0.374972        0.281246
angle_coeff 5 fourier 114.246973        0.343737        0.374972        0.281246
angle_coeff 6 fourier 58.020602        0.343737        0.374972        0.281246
angle_coeff 7 fourier 90.420412        0.343737        0.374972        0.281246
angle_coeff 8 fourier 75.498766        0.343737        0.374972        0.281246
angle_coeff 9 cosine/periodic 88.853997              -1               3

# Negative deformation

variable delta equal -${up}*${len0}
variable delta equal -0.02*${len0}
variable delta equal -0.02*17.703749615894
variable deltaxy equal -${up}*xy
variable deltaxy equal -0.02*xy
variable deltaxz equal -${up}*xz
variable deltaxz equal -0.02*xz
variable deltayz equal -${up}*yz
variable deltayz equal -0.02*yz
if "${dir} == 1" then    "change_box all x delta 0 ${delta} xy delta ${deltaxy} xz delta ${deltaxz} remap units box"
if "${dir} == 2" then    "change_box all y delta 0 ${delta} yz delta ${deltayz} remap units box"
if "${dir} == 3" then    "change_box all z delta 0 ${delta} remap units box"
change_box all z delta 0 ${delta} remap units box
change_box all z delta 0 -0.35407499231788 remap units box
Changing box ...
  triclinic box = (-0.085405392 -0.077652312 -0.11979731) to (15.611817 14.181946 17.229877) with tilt (-7.0109691 2.1166457 0.89157417)
if "${dir} == 4" then    "change_box all yz delta ${delta} remap units box"
if "${dir} == 5" then    "change_box all xz delta ${delta} remap units box"
if "${dir} == 6" then    "change_box all xy delta ${delta} remap units box"

# Relax atoms positions

minimize ${etol} ${ftol} ${maxiter} ${maxeval}
minimize 0 ${ftol} ${maxiter} ${maxeval}
minimize 0 1e-10 ${maxiter} ${maxeval}
minimize 0 1e-10 100000 ${maxeval}
minimize 0 1e-10 100000 100000
Generated 6 of 6 mixed pair_coeff terms from arithmetic mixing rule
Neighbor list info ...
  update: every = 1 steps, delay = 0 steps, check = yes
  max neighbors/atom: 2000, page size: 100000
  master list distance cutoff = 7
  ghost atom cutoff = 7
  binsize = 3.5, bins = 8 5 5
  1 neighbor lists, perpetual/occasional/extra = 1 0 0
  (1) pair lj/cut, perpetual
      attributes: half, newton on
      pair build: half/bin/newton/tri
      stencil: half/bin/3d/tri
      bin: standard
WARNING: Inconsistent image flags
For more information see https://docs.lammps.org/err0027 (src/domain.cpp:1052)
Per MPI rank memory allocation (min/avg/max) = 17.52 | 17.52 | 17.52 Mbytes
   Step          Temp          E_pair         E_mol          TotEng         Press     
    250355   300.35863     -401.60034      627.67713      551.97037      30788.332    
    250381   300.35863     -422.31587      515.70868      419.28639      9863.6343    
Loop time of 0.0286598 on 1 procs for 26 steps with 365 atoms

100.0% CPU use with 1 MPI tasks x 1 OpenMP threads

Minimization stats:
  Stopping criterion = linesearch alpha is zero
  Energy initial, next-to-last, final = 
      226.076792550578   93.3928123863641   93.3928123863641
  Force two-norm initial, final = 220.84475 24.35944
  Force max component initial, final = 23.924162 2.9827761
  Final line search alpha, max atom move = 1.3806821e-11 4.1182657e-11
  Iterations, force evaluations = 26 109

MPI task timing breakdown:
Section |  min time  |  avg time  |  max time  |%varavg| %total
---------------------------------------------------------------
Pair    | 0.022047   | 0.022047   | 0.022047   |   0.0 | 76.93
Bond    | 0.0055412  | 0.0055412  | 0.0055412  |   0.0 | 19.33
Neigh   | 0          | 0          | 0          |   0.0 |  0.00
Comm    | 0.00062015 | 0.00062015 | 0.00062015 |   0.0 |  2.16
Output  | 0          | 0          | 0          |   0.0 |  0.00
Modify  | 0          | 0          | 0          |   0.0 |  0.00
Other   |            | 0.0004516  |            |       |  1.58

Nlocal:            365 ave         365 max         365 min
Histogram: 1 0 0 0 0 0 0 0 0 0
Nghost:           2267 ave        2267 max        2267 min
Histogram: 1 0 0 0 0 0 0 0 0 0
Neighs:          23339 ave       23339 max       23339 min
Histogram: 1 0 0 0 0 0 0 0 0 0

Total # of neighbors = 23339
Ave neighs/atom = 63.942466
Ave special neighs/atom = 6.1863014
Neighbor list builds = 0
Dangerous builds = 0

# Obtain new stress tensor

variable tmp equal pxx
variable pxx1 equal ${tmp}
variable pxx1 equal 8267.50499810259
variable tmp equal pyy
variable pyy1 equal ${tmp}
variable pyy1 equal 4728.86467710744
variable tmp equal pzz
variable pzz1 equal ${tmp}
variable pzz1 equal 16594.5331786229
variable tmp equal pxy
variable pxy1 equal ${tmp}
variable pxy1 equal 1764.62709877222
variable tmp equal pxz
variable pxz1 equal ${tmp}
variable pxz1 equal 889.818610285804
variable tmp equal pyz
variable pyz1 equal ${tmp}
variable pyz1 equal -2313.70507550258

# Compute elastic constant from pressure tensor

variable C1neg equal ${d1}
variable C1neg equal 23.9194973029647
variable C2neg equal ${d2}
variable C2neg equal 6.86037833891615
variable C3neg equal ${d3}
variable C3neg equal 64.5779332184533
variable C4neg equal ${d4}
variable C4neg equal 1.7609565003219
variable C5neg equal ${d5}
variable C5neg equal 4.17604326863384
variable C6neg equal ${d6}
variable C6neg equal 7.69012943518234

# Reset box and simulation parameters

clear
OMP_NUM_THREADS environment is not set. Defaulting to 1 thread.
  using 1 OpenMP thread(s) per MPI task
box tilt large

The 'box' command has been removed and will be ignored

read_restart restart_333U-50C-26-vasp.equil
Reading restart file ...
  restart file = 10 Sep 2025, LAMMPS = 10 Sep 2025
  restoring atom style full from restart
  triclinic box = (-0.085405392 -0.077652312 -0.11979731) to (15.611817 14.181946 17.583952) with tilt (-7.0109691 2.1166457 0.89157417)
  1 by 1 by 1 MPI processor grid
  restoring pair style lj/cut from restart
  restoring bond style harmonic from restart
  restoring angle style hybrid from restart
  restoring dihedral style harmonic from restart
  365 atoms
  390 bonds
  739 angles
  924 dihedrals
Finding 1-2 1-3 1-4 neighbors ...
  special bond factors lj:    0        0        1       
  special bond factors coul:  0        0        1       
     4 = max # of 1-2 neighbors
     8 = max # of 1-3 neighbors
    12 = max # of special neighbors
  special bonds CPU = 0.000 seconds
  read_restart CPU = 0.001 seconds
include ./input/angles_333U-50C-26-vasp.mod
angle_style hybrid fourier cosine/periodic
angle_coeff 1 fourier 157.882480        0.343737        0.374972        0.281246
angle_coeff 2 fourier 221.735285        0.343737        0.374972        0.281246
angle_coeff 3 fourier 83.380072        0.343737        0.374972        0.281246
angle_coeff 4 fourier 32.417871        0.343737        0.374972        0.281246
angle_coeff 5 fourier 114.246973        0.343737        0.374972        0.281246
angle_coeff 6 fourier 58.020602        0.343737        0.374972        0.281246
angle_coeff 7 fourier 90.420412        0.343737        0.374972        0.281246
angle_coeff 8 fourier 75.498766        0.343737        0.374972        0.281246
angle_coeff 9 cosine/periodic 88.853997              -1               3

# Positive deformation

variable delta equal ${up}*${len0}
variable delta equal 0.02*${len0}
variable delta equal 0.02*17.703749615894
variable deltaxy equal ${up}*xy
variable deltaxy equal 0.02*xy
variable deltaxz equal ${up}*xz
variable deltaxz equal 0.02*xz
variable deltayz equal ${up}*yz
variable deltayz equal 0.02*yz
if "${dir} == 1" then    "change_box all x delta 0 ${delta} xy delta ${deltaxy} xz delta ${deltaxz} remap units box"
if "${dir} == 2" then    "change_box all y delta 0 ${delta} yz delta ${deltayz} remap units box"
if "${dir} == 3" then    "change_box all z delta 0 ${delta} remap units box"
change_box all z delta 0 ${delta} remap units box
change_box all z delta 0 0.35407499231788 remap units box
Changing box ...
  triclinic box = (-0.085405392 -0.077652312 -0.11979731) to (15.611817 14.181946 17.938027) with tilt (-7.0109691 2.1166457 0.89157417)
if "${dir} == 4" then    "change_box all yz delta ${delta} remap units box"
if "${dir} == 5" then    "change_box all xz delta ${delta} remap units box"
if "${dir} == 6" then    "change_box all xy delta ${delta} remap units box"

# Relax atoms positions

minimize ${etol} ${ftol} ${maxiter} ${maxeval}
minimize 0 ${ftol} ${maxiter} ${maxeval}
minimize 0 1e-10 ${maxiter} ${maxeval}
minimize 0 1e-10 100000 ${maxeval}
minimize 0 1e-10 100000 100000
Generated 6 of 6 mixed pair_coeff terms from arithmetic mixing rule
Neighbor list info ...
  update: every = 1 steps, delay = 0 steps, check = yes
  max neighbors/atom: 2000, page size: 100000
  master list distance cutoff = 7
  ghost atom cutoff = 7
  binsize = 3.5, bins = 8 5 6
  1 neighbor lists, perpetual/occasional/extra = 1 0 0
  (1) pair lj/cut, perpetual
      attributes: half, newton on
      pair build: half/bin/newton/tri
      stencil: half/bin/3d/tri
      bin: standard
WARNING: Inconsistent image flags
For more information see https://docs.lammps.org/err0027 (src/domain.cpp:1052)
Per MPI rank memory allocation (min/avg/max) = 17.52 | 17.52 | 17.52 Mbytes
   Step          Temp          E_pair         E_mol          TotEng         Press     
    250355   300.35863     -447.67127      672.9718       551.19411     -22786.286    
    250397   300.35863     -456.33849      546.50773      416.06281     -6604.6049    
Loop time of 0.0285844 on 1 procs for 42 steps with 365 atoms

100.0% CPU use with 1 MPI tasks x 1 OpenMP threads

Minimization stats:
  Stopping criterion = linesearch alpha is zero
  Energy initial, next-to-last, final = 
      225.300532052421   90.1692377259654   90.1692377259654
  Force two-norm initial, final = 219.7943 17.298178
  Force max component initial, final = 23.42175 2.4094526
  Final line search alpha, max atom move = 2.2115888e-11 5.3287184e-11
  Iterations, force evaluations = 42 139

MPI task timing breakdown:
Section |  min time  |  avg time  |  max time  |%varavg| %total
---------------------------------------------------------------
Pair    | 0.021663   | 0.021663   | 0.021663   |   0.0 | 75.79
Bond    | 0.0056971  | 0.0056971  | 0.0056971  |   0.0 | 19.93
Neigh   | 0          | 0          | 0          |   0.0 |  0.00
Comm    | 0.00068204 | 0.00068204 | 0.00068204 |   0.0 |  2.39
Output  | 0          | 0          | 0          |   0.0 |  0.00
Modify  | 0          | 0          | 0          |   0.0 |  0.00
Other   |            | 0.0005424  |            |       |  1.90

Nlocal:            365 ave         365 max         365 min
Histogram: 1 0 0 0 0 0 0 0 0 0
Nghost:           2243 ave        2243 max        2243 min
Histogram: 1 0 0 0 0 0 0 0 0 0
Neighs:          22400 ave       22400 max       22400 min
Histogram: 1 0 0 0 0 0 0 0 0 0

Total # of neighbors = 22400
Ave neighs/atom = 61.369863
Ave special neighs/atom = 6.1863014
Neighbor list builds = 0
Dangerous builds = 0

# Obtain new stress tensor

variable tmp equal pe
variable e1 equal ${tmp}
variable e1 equal 90.1692377259654
variable tmp equal press
variable p1 equal ${tmp}
variable p1 equal -6604.60489882408
variable tmp equal pxx
variable pxx1 equal ${tmp}
variable pxx1 equal -1912.60612612902
variable tmp equal pyy
variable pyy1 equal ${tmp}
variable pyy1 equal -7637.20860750602
variable tmp equal pzz
variable pzz1 equal ${tmp}
variable pzz1 equal -10263.9999628372
variable tmp equal pxy
variable pxy1 equal ${tmp}
variable pxy1 equal 1940.22848004967
variable tmp equal pxz
variable pxz1 equal ${tmp}
variable pxz1 equal 688.399067699047
variable tmp equal pyz
variable pyz1 equal ${tmp}
variable pyz1 equal -477.231314109708

# Compute elastic constant from pressure tensor

variable C1pos equal ${d1}
variable C1pos equal 26.9810583181933
variable C2pos equal ${d2}
variable C2pos equal 54.9699880841512
variable C3pos equal ${d3}
variable C3pos equal 69.7147324888473
variable C4pos equal ${d4}
variable C4pos equal -10.9433253072863
variable C5pos equal ${d5}
variable C5pos equal -3.16894555570005
variable C6pos equal ${d6}
variable C6pos equal -8.56813634156959

# Combine positive and negative

variable C1${dir} equal 0.5*(${C1neg}+${C1pos})
variable C13 equal 0.5*(${C1neg}+${C1pos})
variable C13 equal 0.5*(23.9194973029647+${C1pos})
variable C13 equal 0.5*(23.9194973029647+26.9810583181933)
variable C2${dir} equal 0.5*(${C2neg}+${C2pos})
variable C23 equal 0.5*(${C2neg}+${C2pos})
variable C23 equal 0.5*(6.86037833891615+${C2pos})
variable C23 equal 0.5*(6.86037833891615+54.9699880841512)
variable C3${dir} equal 0.5*(${C3neg}+${C3pos})
variable C33 equal 0.5*(${C3neg}+${C3pos})
variable C33 equal 0.5*(64.5779332184533+${C3pos})
variable C33 equal 0.5*(64.5779332184533+69.7147324888473)
variable C4${dir} equal 0.5*(${C4neg}+${C4pos})
variable C43 equal 0.5*(${C4neg}+${C4pos})
variable C43 equal 0.5*(1.7609565003219+${C4pos})
variable C43 equal 0.5*(1.7609565003219+-10.9433253072863)
variable C5${dir} equal 0.5*(${C5neg}+${C5pos})
variable C53 equal 0.5*(${C5neg}+${C5pos})
variable C53 equal 0.5*(4.17604326863384+${C5pos})
variable C53 equal 0.5*(4.17604326863384+-3.16894555570005)
variable C6${dir} equal 0.5*(${C6neg}+${C6pos})
variable C63 equal 0.5*(${C6neg}+${C6pos})
variable C63 equal 0.5*(7.69012943518234+${C6pos})
variable C63 equal 0.5*(7.69012943518234+-8.56813634156959)

# Delete dir to make sure it is not reused

variable dir delete

# uyz Perturbation

variable dir equal 4
include ./input/displace_333U-50C-26-vasp.mod
if "${dir} == 1" then    "variable len0 equal ${lx0}"
if "${dir} == 2" then    "variable len0 equal ${ly0}"
if "${dir} == 3" then    "variable len0 equal ${lz0}"
if "${dir} == 4" then    "variable len0 equal ${lz0}"
variable len0 equal ${lz0}
variable len0 equal 17.703749615894
if "${dir} == 5" then    "variable len0 equal ${lz0}"
if "${dir} == 6" then    "variable len0 equal ${ly0}"

# Reset box and simulation parameters

clear
OMP_NUM_THREADS environment is not set. Defaulting to 1 thread.
  using 1 OpenMP thread(s) per MPI task
box tilt large

The 'box' command has been removed and will be ignored

read_restart restart_333U-50C-26-vasp.equil
Reading restart file ...
  restart file = 10 Sep 2025, LAMMPS = 10 Sep 2025
  restoring atom style full from restart
  triclinic box = (-0.085405392 -0.077652312 -0.11979731) to (15.611817 14.181946 17.583952) with tilt (-7.0109691 2.1166457 0.89157417)
  1 by 1 by 1 MPI processor grid
  restoring pair style lj/cut from restart
  restoring bond style harmonic from restart
  restoring angle style hybrid from restart
  restoring dihedral style harmonic from restart
  365 atoms
  390 bonds
  739 angles
  924 dihedrals
Finding 1-2 1-3 1-4 neighbors ...
  special bond factors lj:    0        0        1       
  special bond factors coul:  0        0        1       
     4 = max # of 1-2 neighbors
     8 = max # of 1-3 neighbors
    12 = max # of special neighbors
  special bonds CPU = 0.000 seconds
  read_restart CPU = 0.001 seconds
include ./input/angles_333U-50C-26-vasp.mod
angle_style hybrid fourier cosine/periodic
angle_coeff 1 fourier 157.882480        0.343737        0.374972        0.281246
angle_coeff 2 fourier 221.735285        0.343737        0.374972        0.281246
angle_coeff 3 fourier 83.380072        0.343737        0.374972        0.281246
angle_coeff 4 fourier 32.417871        0.343737        0.374972        0.281246
angle_coeff 5 fourier 114.246973        0.343737        0.374972        0.281246
angle_coeff 6 fourier 58.020602        0.343737        0.374972        0.281246
angle_coeff 7 fourier 90.420412        0.343737        0.374972        0.281246
angle_coeff 8 fourier 75.498766        0.343737        0.374972        0.281246
angle_coeff 9 cosine/periodic 88.853997              -1               3

# Negative deformation

variable delta equal -${up}*${len0}
variable delta equal -0.02*${len0}
variable delta equal -0.02*17.703749615894
variable deltaxy equal -${up}*xy
variable deltaxy equal -0.02*xy
variable deltaxz equal -${up}*xz
variable deltaxz equal -0.02*xz
variable deltayz equal -${up}*yz
variable deltayz equal -0.02*yz
if "${dir} == 1" then    "change_box all x delta 0 ${delta} xy delta ${deltaxy} xz delta ${deltaxz} remap units box"
if "${dir} == 2" then    "change_box all y delta 0 ${delta} yz delta ${deltayz} remap units box"
if "${dir} == 3" then    "change_box all z delta 0 ${delta} remap units box"
if "${dir} == 4" then    "change_box all yz delta ${delta} remap units box"
change_box all yz delta ${delta} remap units box
change_box all yz delta -0.35407499231788 remap units box
Changing box ...
  triclinic box = (-0.085405392 -0.077652312 -0.11979731) to (15.611817 14.181946 17.583952) with tilt (-7.0109691 2.1166457 0.53749917)
if "${dir} == 5" then    "change_box all xz delta ${delta} remap units box"
if "${dir} == 6" then    "change_box all xy delta ${delta} remap units box"

# Relax atoms positions

minimize ${etol} ${ftol} ${maxiter} ${maxeval}
minimize 0 ${ftol} ${maxiter} ${maxeval}
minimize 0 1e-10 ${maxiter} ${maxeval}
minimize 0 1e-10 100000 ${maxeval}
minimize 0 1e-10 100000 100000
Generated 6 of 6 mixed pair_coeff terms from arithmetic mixing rule
Neighbor list info ...
  update: every = 1 steps, delay = 0 steps, check = yes
  max neighbors/atom: 2000, page size: 100000
  master list distance cutoff = 7
  ghost atom cutoff = 7
  binsize = 3.5, bins = 8 5 6
  1 neighbor lists, perpetual/occasional/extra = 1 0 0
  (1) pair lj/cut, perpetual
      attributes: half, newton on
      pair build: half/bin/newton/tri
      stencil: half/bin/3d/tri
      bin: standard
WARNING: Inconsistent image flags
For more information see https://docs.lammps.org/err0027 (src/domain.cpp:1052)
Per MPI rank memory allocation (min/avg/max) = 17.52 | 17.52 | 17.52 Mbytes
   Step          Temp          E_pair         E_mol          TotEng         Press     
    250355   300.35863     -430.18275      633.62565      529.33648      3191.0513    
    250396   300.35863     -441.76907      525.37606      409.50056      555.42177    
Loop time of 0.024293 on 1 procs for 41 steps with 365 atoms

100.0% CPU use with 1 MPI tasks x 1 OpenMP threads

Minimization stats:
  Stopping criterion = linesearch alpha is zero
  Energy initial, next-to-last, final = 
      203.442905193195   83.6069890002339   83.6069890002339
  Force two-norm initial, final = 178.74561 16.009999
  Force max component initial, final = 20.859512 2.636151
  Final line search alpha, max atom move = 3.3167766e-11 8.7435238e-11
  Iterations, force evaluations = 41 137

MPI task timing breakdown:
Section |  min time  |  avg time  |  max time  |%varavg| %total
---------------------------------------------------------------
Pair    | 0.018465   | 0.018465   | 0.018465   |   0.0 | 76.01
Bond    | 0.0048519  | 0.0048519  | 0.0048519  |   0.0 | 19.97
Neigh   | 0          | 0          | 0          |   0.0 |  0.00
Comm    | 0.0005531  | 0.0005531  | 0.0005531  |   0.0 |  2.28
Output  | 0          | 0          | 0          |   0.0 |  0.00
Modify  | 0          | 0          | 0          |   0.0 |  0.00
Other   |            | 0.0004227  |            |       |  1.74

Nlocal:            365 ave         365 max         365 min
Histogram: 1 0 0 0 0 0 0 0 0 0
Nghost:           2247 ave        2247 max        2247 min
Histogram: 1 0 0 0 0 0 0 0 0 0
Neighs:          22861 ave       22861 max       22861 min
Histogram: 1 0 0 0 0 0 0 0 0 0

Total # of neighbors = 22861
Ave neighs/atom = 62.632877
Ave special neighs/atom = 6.1863014
Neighbor list builds = 0
Dangerous builds = 0

# Obtain new stress tensor

variable tmp equal pxx
variable pxx1 equal ${tmp}
variable pxx1 equal 2386.95824809973
variable tmp equal pyy
variable pyy1 equal ${tmp}
variable pyy1 equal -1923.81705844856
variable tmp equal pzz
variable pzz1 equal ${tmp}
variable pzz1 equal 1203.12411364104
variable tmp equal pxy
variable pxy1 equal ${tmp}
variable pxy1 equal 1686.91098707146
variable tmp equal pxz
variable pxz1 equal ${tmp}
variable pxz1 equal 1289.15115340363
variable tmp equal pyz
variable pyz1 equal ${tmp}
variable pyz1 equal 3029.00953433476

# Compute elastic constant from pressure tensor

variable C1neg equal ${d1}
variable C1neg equal -5.48323644704955
variable C2neg equal ${d2}
variable C2neg equal -26.4030303388639
variable C3neg equal ${d3}
variable C3neg equal -12.3791121064561
variable C4neg equal ${d4}
variable C4neg equal 28.4745295495086
variable C5neg equal ${d5}
variable C5neg equal 6.17270598422297
variable C6neg equal ${d6}
variable C6neg equal 7.30154887667854

# Reset box and simulation parameters

clear
OMP_NUM_THREADS environment is not set. Defaulting to 1 thread.
  using 1 OpenMP thread(s) per MPI task
box tilt large

The 'box' command has been removed and will be ignored

read_restart restart_333U-50C-26-vasp.equil
Reading restart file ...
  restart file = 10 Sep 2025, LAMMPS = 10 Sep 2025
  restoring atom style full from restart
  triclinic box = (-0.085405392 -0.077652312 -0.11979731) to (15.611817 14.181946 17.583952) with tilt (-7.0109691 2.1166457 0.89157417)
  1 by 1 by 1 MPI processor grid
  restoring pair style lj/cut from restart
  restoring bond style harmonic from restart
  restoring angle style hybrid from restart
  restoring dihedral style harmonic from restart
  365 atoms
  390 bonds
  739 angles
  924 dihedrals
Finding 1-2 1-3 1-4 neighbors ...
  special bond factors lj:    0        0        1       
  special bond factors coul:  0        0        1       
     4 = max # of 1-2 neighbors
     8 = max # of 1-3 neighbors
    12 = max # of special neighbors
  special bonds CPU = 0.000 seconds
  read_restart CPU = 0.001 seconds
include ./input/angles_333U-50C-26-vasp.mod
angle_style hybrid fourier cosine/periodic
angle_coeff 1 fourier 157.882480        0.343737        0.374972        0.281246
angle_coeff 2 fourier 221.735285        0.343737        0.374972        0.281246
angle_coeff 3 fourier 83.380072        0.343737        0.374972        0.281246
angle_coeff 4 fourier 32.417871        0.343737        0.374972        0.281246
angle_coeff 5 fourier 114.246973        0.343737        0.374972        0.281246
angle_coeff 6 fourier 58.020602        0.343737        0.374972        0.281246
angle_coeff 7 fourier 90.420412        0.343737        0.374972        0.281246
angle_coeff 8 fourier 75.498766        0.343737        0.374972        0.281246
angle_coeff 9 cosine/periodic 88.853997              -1               3

# Positive deformation

variable delta equal ${up}*${len0}
variable delta equal 0.02*${len0}
variable delta equal 0.02*17.703749615894
variable deltaxy equal ${up}*xy
variable deltaxy equal 0.02*xy
variable deltaxz equal ${up}*xz
variable deltaxz equal 0.02*xz
variable deltayz equal ${up}*yz
variable deltayz equal 0.02*yz
if "${dir} == 1" then    "change_box all x delta 0 ${delta} xy delta ${deltaxy} xz delta ${deltaxz} remap units box"
if "${dir} == 2" then    "change_box all y delta 0 ${delta} yz delta ${deltayz} remap units box"
if "${dir} == 3" then    "change_box all z delta 0 ${delta} remap units box"
if "${dir} == 4" then    "change_box all yz delta ${delta} remap units box"
change_box all yz delta ${delta} remap units box
change_box all yz delta 0.35407499231788 remap units box
Changing box ...
  triclinic box = (-0.085405392 -0.077652312 -0.11979731) to (15.611817 14.181946 17.583952) with tilt (-7.0109691 2.1166457 1.2456492)
if "${dir} == 5" then    "change_box all xz delta ${delta} remap units box"
if "${dir} == 6" then    "change_box all xy delta ${delta} remap units box"

# Relax atoms positions

minimize ${etol} ${ftol} ${maxiter} ${maxeval}
minimize 0 ${ftol} ${maxiter} ${maxeval}
minimize 0 1e-10 ${maxiter} ${maxeval}
minimize 0 1e-10 100000 ${maxeval}
minimize 0 1e-10 100000 100000
Generated 6 of 6 mixed pair_coeff terms from arithmetic mixing rule
Neighbor list info ...
  update: every = 1 steps, delay = 0 steps, check = yes
  max neighbors/atom: 2000, page size: 100000
  master list distance cutoff = 7
  ghost atom cutoff = 7
  binsize = 3.5, bins = 8 5 6
  1 neighbor lists, perpetual/occasional/extra = 1 0 0
  (1) pair lj/cut, perpetual
      attributes: half, newton on
      pair build: half/bin/newton/tri
      stencil: half/bin/3d/tri
      bin: standard
WARNING: Inconsistent image flags
For more information see https://docs.lammps.org/err0027 (src/domain.cpp:1052)
Per MPI rank memory allocation (min/avg/max) = 17.52 | 17.52 | 17.52 Mbytes
   Step          Temp          E_pair         E_mol          TotEng         Press     
    250355   300.35863     -423.64331      634.16282      536.41309      3462.9667    
    250388   300.35863     -440.09632      529.75714      415.55439      1203.6739    
Loop time of 0.0218421 on 1 procs for 33 steps with 365 atoms

100.0% CPU use with 1 MPI tasks x 1 OpenMP threads

Minimization stats:
  Stopping criterion = linesearch alpha is zero
  Energy initial, next-to-last, final = 
      210.519517328334   89.6608184389018   89.6608184389018
  Force two-norm initial, final = 179.29113 19.728558
  Force max component initial, final = 18.022001 2.8399926
  Final line search alpha, max atom move = 3.1141493e-11 8.8441609e-11
  Iterations, force evaluations = 33 121

MPI task timing breakdown:
Section |  min time  |  avg time  |  max time  |%varavg| %total
---------------------------------------------------------------
Pair    | 0.016688   | 0.016688   | 0.016688   |   0.0 | 76.40
Bond    | 0.0042896  | 0.0042896  | 0.0042896  |   0.0 | 19.64
Neigh   | 0          | 0          | 0          |   0.0 |  0.00
Comm    | 0.00048328 | 0.00048328 | 0.00048328 |   0.0 |  2.21
Output  | 0          | 0          | 0          |   0.0 |  0.00
Modify  | 0          | 0          | 0          |   0.0 |  0.00
Other   |            | 0.0003814  |            |       |  1.75

Nlocal:            365 ave         365 max         365 min
Histogram: 1 0 0 0 0 0 0 0 0 0
Nghost:           2255 ave        2255 max        2255 min
Histogram: 1 0 0 0 0 0 0 0 0 0
Neighs:          22834 ave       22834 max       22834 min
Histogram: 1 0 0 0 0 0 0 0 0 0

Total # of neighbors = 22834
Ave neighs/atom = 62.558904
Ave special neighs/atom = 6.1863014
Neighbor list builds = 0
Dangerous builds = 0

# Obtain new stress tensor

variable tmp equal pe
variable e1 equal ${tmp}
variable e1 equal 89.6608184389018
variable tmp equal press
variable p1 equal ${tmp}
variable p1 equal 1203.67391889267
variable tmp equal pxx
variable pxx1 equal ${tmp}
variable pxx1 equal 3092.98730167474
variable tmp equal pyy
variable pyy1 equal ${tmp}
variable pyy1 equal -2007.44225964313
variable tmp equal pzz
variable pzz1 equal ${tmp}
variable pzz1 equal 2525.4767146464
variable tmp equal pxy
variable pxy1 equal ${tmp}
variable pxy1 equal 2126.40844350426
variable tmp equal pxz
variable pxz1 equal ${tmp}
variable pxz1 equal 1030.52473047696
variable tmp equal pyz
variable pyz1 equal ${tmp}
variable pyz1 equal -6289.66273436598

# Compute elastic constant from pressure tensor

variable C1pos equal ${d1}
variable C1pos equal 1.9530911791745
variable C2pos equal ${d2}
variable C2pos equal 26.8211563448367
variable C3pos equal ${d3}
variable C3pos equal 5.76734910142925
variable C4pos equal ${d4}
variable C4pos equal 18.1188317939951
variable C5pos equal ${d5}
variable C5pos equal -4.87957386958962
variable C6pos equal ${d6}
variable C6pos equal -9.49903615884254

# Combine positive and negative

variable C1${dir} equal 0.5*(${C1neg}+${C1pos})
variable C14 equal 0.5*(${C1neg}+${C1pos})
variable C14 equal 0.5*(-5.48323644704955+${C1pos})
variable C14 equal 0.5*(-5.48323644704955+1.9530911791745)
variable C2${dir} equal 0.5*(${C2neg}+${C2pos})
variable C24 equal 0.5*(${C2neg}+${C2pos})
variable C24 equal 0.5*(-26.4030303388639+${C2pos})
variable C24 equal 0.5*(-26.4030303388639+26.8211563448367)
variable C3${dir} equal 0.5*(${C3neg}+${C3pos})
variable C34 equal 0.5*(${C3neg}+${C3pos})
variable C34 equal 0.5*(-12.3791121064561+${C3pos})
variable C34 equal 0.5*(-12.3791121064561+5.76734910142925)
variable C4${dir} equal 0.5*(${C4neg}+${C4pos})
variable C44 equal 0.5*(${C4neg}+${C4pos})
variable C44 equal 0.5*(28.4745295495086+${C4pos})
variable C44 equal 0.5*(28.4745295495086+18.1188317939951)
variable C5${dir} equal 0.5*(${C5neg}+${C5pos})
variable C54 equal 0.5*(${C5neg}+${C5pos})
variable C54 equal 0.5*(6.17270598422297+${C5pos})
variable C54 equal 0.5*(6.17270598422297+-4.87957386958962)
variable C6${dir} equal 0.5*(${C6neg}+${C6pos})
variable C64 equal 0.5*(${C6neg}+${C6pos})
variable C64 equal 0.5*(7.30154887667854+${C6pos})
variable C64 equal 0.5*(7.30154887667854+-9.49903615884254)

# Delete dir to make sure it is not reused

variable dir delete

# uxz Perturbation

variable dir equal 5
include ./input/displace_333U-50C-26-vasp.mod
if "${dir} == 1" then    "variable len0 equal ${lx0}"
if "${dir} == 2" then    "variable len0 equal ${ly0}"
if "${dir} == 3" then    "variable len0 equal ${lz0}"
if "${dir} == 4" then    "variable len0 equal ${lz0}"
if "${dir} == 5" then    "variable len0 equal ${lz0}"
variable len0 equal ${lz0}
variable len0 equal 17.703749615894
if "${dir} == 6" then    "variable len0 equal ${ly0}"

# Reset box and simulation parameters

clear
OMP_NUM_THREADS environment is not set. Defaulting to 1 thread.
  using 1 OpenMP thread(s) per MPI task
box tilt large

The 'box' command has been removed and will be ignored

read_restart restart_333U-50C-26-vasp.equil
Reading restart file ...
  restart file = 10 Sep 2025, LAMMPS = 10 Sep 2025
  restoring atom style full from restart
  triclinic box = (-0.085405392 -0.077652312 -0.11979731) to (15.611817 14.181946 17.583952) with tilt (-7.0109691 2.1166457 0.89157417)
  1 by 1 by 1 MPI processor grid
  restoring pair style lj/cut from restart
  restoring bond style harmonic from restart
  restoring angle style hybrid from restart
  restoring dihedral style harmonic from restart
  365 atoms
  390 bonds
  739 angles
  924 dihedrals
Finding 1-2 1-3 1-4 neighbors ...
  special bond factors lj:    0        0        1       
  special bond factors coul:  0        0        1       
     4 = max # of 1-2 neighbors
     8 = max # of 1-3 neighbors
    12 = max # of special neighbors
  special bonds CPU = 0.000 seconds
  read_restart CPU = 0.001 seconds
include ./input/angles_333U-50C-26-vasp.mod
angle_style hybrid fourier cosine/periodic
angle_coeff 1 fourier 157.882480        0.343737        0.374972        0.281246
angle_coeff 2 fourier 221.735285        0.343737        0.374972        0.281246
angle_coeff 3 fourier 83.380072        0.343737        0.374972        0.281246
angle_coeff 4 fourier 32.417871        0.343737        0.374972        0.281246
angle_coeff 5 fourier 114.246973        0.343737        0.374972        0.281246
angle_coeff 6 fourier 58.020602        0.343737        0.374972        0.281246
angle_coeff 7 fourier 90.420412        0.343737        0.374972        0.281246
angle_coeff 8 fourier 75.498766        0.343737        0.374972        0.281246
angle_coeff 9 cosine/periodic 88.853997              -1               3

# Negative deformation

variable delta equal -${up}*${len0}
variable delta equal -0.02*${len0}
variable delta equal -0.02*17.703749615894
variable deltaxy equal -${up}*xy
variable deltaxy equal -0.02*xy
variable deltaxz equal -${up}*xz
variable deltaxz equal -0.02*xz
variable deltayz equal -${up}*yz
variable deltayz equal -0.02*yz
if "${dir} == 1" then    "change_box all x delta 0 ${delta} xy delta ${deltaxy} xz delta ${deltaxz} remap units box"
if "${dir} == 2" then    "change_box all y delta 0 ${delta} yz delta ${deltayz} remap units box"
if "${dir} == 3" then    "change_box all z delta 0 ${delta} remap units box"
if "${dir} == 4" then    "change_box all yz delta ${delta} remap units box"
if "${dir} == 5" then    "change_box all xz delta ${delta} remap units box"
change_box all xz delta ${delta} remap units box
change_box all xz delta -0.35407499231788 remap units box
Changing box ...
  triclinic box = (-0.085405392 -0.077652312 -0.11979731) to (15.611817 14.181946 17.583952) with tilt (-7.0109691 1.7625707 0.89157417)
if "${dir} == 6" then    "change_box all xy delta ${delta} remap units box"

# Relax atoms positions

minimize ${etol} ${ftol} ${maxiter} ${maxeval}
minimize 0 ${ftol} ${maxiter} ${maxeval}
minimize 0 1e-10 ${maxiter} ${maxeval}
minimize 0 1e-10 100000 ${maxeval}
minimize 0 1e-10 100000 100000
Generated 6 of 6 mixed pair_coeff terms from arithmetic mixing rule
Neighbor list info ...
  update: every = 1 steps, delay = 0 steps, check = yes
  max neighbors/atom: 2000, page size: 100000
  master list distance cutoff = 7
  ghost atom cutoff = 7
  binsize = 3.5, bins = 7 5 6
  1 neighbor lists, perpetual/occasional/extra = 1 0 0
  (1) pair lj/cut, perpetual
      attributes: half, newton on
      pair build: half/bin/newton/tri
      stencil: half/bin/3d/tri
      bin: standard
WARNING: Inconsistent image flags
For more information see https://docs.lammps.org/err0027 (src/domain.cpp:1052)
Per MPI rank memory allocation (min/avg/max) = 17.52 | 17.52 | 17.52 Mbytes
   Step          Temp          E_pair         E_mol          TotEng         Press     
    250355   300.35863     -427.6253       634.95892      533.22719      2867.7236    
    250390   300.35863     -439.8486       528.47184      414.51682      1007.9177    
Loop time of 0.0295246 on 1 procs for 35 steps with 365 atoms

100.0% CPU use with 1 MPI tasks x 1 OpenMP threads

Minimization stats:
  Stopping criterion = linesearch alpha is zero
  Energy initial, next-to-last, final = 
       207.33361986232   88.6232450101799   88.6232450101799
  Force two-norm initial, final = 180.95506 20.038854
  Force max component initial, final = 18.269072 3.5718578
  Final line search alpha, max atom move = 2.5623953e-11 9.1525116e-11
  Iterations, force evaluations = 35 125

MPI task timing breakdown:
Section |  min time  |  avg time  |  max time  |%varavg| %total
---------------------------------------------------------------
Pair    | 0.022066   | 0.022066   | 0.022066   |   0.0 | 74.74
Bond    | 0.0060273  | 0.0060273  | 0.0060273  |   0.0 | 20.41
Neigh   | 0          | 0          | 0          |   0.0 |  0.00
Comm    | 0.0007664  | 0.0007664  | 0.0007664  |   0.0 |  2.60
Output  | 0          | 0          | 0          |   0.0 |  0.00
Modify  | 0          | 0          | 0          |   0.0 |  0.00
Other   |            | 0.0006651  |            |       |  2.25

Nlocal:            365 ave         365 max         365 min
Histogram: 1 0 0 0 0 0 0 0 0 0
Nghost:           2251 ave        2251 max        2251 min
Histogram: 1 0 0 0 0 0 0 0 0 0
Neighs:          22854 ave       22854 max       22854 min
Histogram: 1 0 0 0 0 0 0 0 0 0

Total # of neighbors = 22854
Ave neighs/atom = 62.613699
Ave special neighs/atom = 6.1863014
Neighbor list builds = 0
Dangerous builds = 0

# Obtain new stress tensor

variable tmp equal pxx
variable pxx1 equal ${tmp}
variable pxx1 equal 3164.63828674503
variable tmp equal pyy
variable pyy1 equal ${tmp}
variable pyy1 equal -2539.95932667396
variable tmp equal pzz
variable pzz1 equal ${tmp}
variable pzz1 equal 2399.0741345776
variable tmp equal pxy
variable pxy1 equal ${tmp}
variable pxy1 equal 1925.81815123355
variable tmp equal pxz
variable pxz1 equal ${tmp}
variable pxz1 equal 5560.69877093116
variable tmp equal pyz
variable pyz1 equal ${tmp}
variable pyz1 equal -1578.51453304175

# Compute elastic constant from pressure tensor

variable C1neg equal ${d1}
variable C1neg equal -1.59483625382305
variable C2neg equal ${d2}
variable C2neg equal -29.4837416799909
variable C3neg equal ${d3}
variable C3neg equal -6.39936200177325
variable C4neg equal ${d4}
variable C4neg equal 5.43690921262605
variable C5neg equal ${d5}
variable C5neg equal 27.5304440718606
variable C6neg equal ${d6}
variable C6neg equal 8.49608469748899

# Reset box and simulation parameters

clear
OMP_NUM_THREADS environment is not set. Defaulting to 1 thread.
  using 1 OpenMP thread(s) per MPI task
box tilt large

The 'box' command has been removed and will be ignored

read_restart restart_333U-50C-26-vasp.equil
Reading restart file ...
  restart file = 10 Sep 2025, LAMMPS = 10 Sep 2025
  restoring atom style full from restart
  triclinic box = (-0.085405392 -0.077652312 -0.11979731) to (15.611817 14.181946 17.583952) with tilt (-7.0109691 2.1166457 0.89157417)
  1 by 1 by 1 MPI processor grid
  restoring pair style lj/cut from restart
  restoring bond style harmonic from restart
  restoring angle style hybrid from restart
  restoring dihedral style harmonic from restart
  365 atoms
  390 bonds
  739 angles
  924 dihedrals
Finding 1-2 1-3 1-4 neighbors ...
  special bond factors lj:    0        0        1       
  special bond factors coul:  0        0        1       
     4 = max # of 1-2 neighbors
     8 = max # of 1-3 neighbors
    12 = max # of special neighbors
  special bonds CPU = 0.000 seconds
  read_restart CPU = 0.001 seconds
include ./input/angles_333U-50C-26-vasp.mod
angle_style hybrid fourier cosine/periodic
angle_coeff 1 fourier 157.882480        0.343737        0.374972        0.281246
angle_coeff 2 fourier 221.735285        0.343737        0.374972        0.281246
angle_coeff 3 fourier 83.380072        0.343737        0.374972        0.281246
angle_coeff 4 fourier 32.417871        0.343737        0.374972        0.281246
angle_coeff 5 fourier 114.246973        0.343737        0.374972        0.281246
angle_coeff 6 fourier 58.020602        0.343737        0.374972        0.281246
angle_coeff 7 fourier 90.420412        0.343737        0.374972        0.281246
angle_coeff 8 fourier 75.498766        0.343737        0.374972        0.281246
angle_coeff 9 cosine/periodic 88.853997              -1               3

# Positive deformation

variable delta equal ${up}*${len0}
variable delta equal 0.02*${len0}
variable delta equal 0.02*17.703749615894
variable deltaxy equal ${up}*xy
variable deltaxy equal 0.02*xy
variable deltaxz equal ${up}*xz
variable deltaxz equal 0.02*xz
variable deltayz equal ${up}*yz
variable deltayz equal 0.02*yz
if "${dir} == 1" then    "change_box all x delta 0 ${delta} xy delta ${deltaxy} xz delta ${deltaxz} remap units box"
if "${dir} == 2" then    "change_box all y delta 0 ${delta} yz delta ${deltayz} remap units box"
if "${dir} == 3" then    "change_box all z delta 0 ${delta} remap units box"
if "${dir} == 4" then    "change_box all yz delta ${delta} remap units box"
if "${dir} == 5" then    "change_box all xz delta ${delta} remap units box"
change_box all xz delta ${delta} remap units box
change_box all xz delta 0.35407499231788 remap units box
Changing box ...
  triclinic box = (-0.085405392 -0.077652312 -0.11979731) to (15.611817 14.181946 17.583952) with tilt (-7.0109691 2.4707207 0.89157417)
if "${dir} == 6" then    "change_box all xy delta ${delta} remap units box"

# Relax atoms positions

minimize ${etol} ${ftol} ${maxiter} ${maxeval}
minimize 0 ${ftol} ${maxiter} ${maxeval}
minimize 0 1e-10 ${maxiter} ${maxeval}
minimize 0 1e-10 100000 ${maxeval}
minimize 0 1e-10 100000 100000
Generated 6 of 6 mixed pair_coeff terms from arithmetic mixing rule
Neighbor list info ...
  update: every = 1 steps, delay = 0 steps, check = yes
  max neighbors/atom: 2000, page size: 100000
  master list distance cutoff = 7
  ghost atom cutoff = 7
  binsize = 3.5, bins = 8 5 6
  1 neighbor lists, perpetual/occasional/extra = 1 0 0
  (1) pair lj/cut, perpetual
      attributes: half, newton on
      pair build: half/bin/newton/tri
      stencil: half/bin/3d/tri
      bin: standard
WARNING: Inconsistent image flags
For more information see https://docs.lammps.org/err0027 (src/domain.cpp:1052)
Per MPI rank memory allocation (min/avg/max) = 17.52 | 17.52 | 17.52 Mbytes
   Step          Temp          E_pair         E_mol          TotEng         Press     
    250355   300.35863     -426.1428       633.43758      533.18835      3778.2297    
    250396   300.35863     -443.51729      526.01335      408.38963      682.43756    
Loop time of 0.0378524 on 1 procs for 41 steps with 365 atoms

100.0% CPU use with 1 MPI tasks x 1 OpenMP threads

Minimization stats:
  Stopping criterion = linesearch alpha is zero
  Energy initial, next-to-last, final = 
      207.294780681334   82.4960576575186   82.4960576575186
  Force two-norm initial, final = 180.94105 16.508733
  Force max component initial, final = 19.171152 1.9098351
  Final line search alpha, max atom move = 3.1826879e-11 6.078409e-11
  Iterations, force evaluations = 41 137

MPI task timing breakdown:
Section |  min time  |  avg time  |  max time  |%varavg| %total
---------------------------------------------------------------
Pair    | 0.028545   | 0.028545   | 0.028545   |   0.0 | 75.41
Bond    | 0.0076939  | 0.0076939  | 0.0076939  |   0.0 | 20.33
Neigh   | 0          | 0          | 0          |   0.0 |  0.00
Comm    | 0.00087671 | 0.00087671 | 0.00087671 |   0.0 |  2.32
Output  | 0          | 0          | 0          |   0.0 |  0.00
Modify  | 0          | 0          | 0          |   0.0 |  0.00
Other   |            | 0.0007372  |            |       |  1.95

Nlocal:            365 ave         365 max         365 min
Histogram: 1 0 0 0 0 0 0 0 0 0
Nghost:           2259 ave        2259 max        2259 min
Histogram: 1 0 0 0 0 0 0 0 0 0
Neighs:          22841 ave       22841 max       22841 min
Histogram: 1 0 0 0 0 0 0 0 0 0

Total # of neighbors = 22841
Ave neighs/atom = 62.578082
Ave special neighs/atom = 6.1863014
Neighbor list builds = 0
Dangerous builds = 0

# Obtain new stress tensor

variable tmp equal pe
variable e1 equal ${tmp}
variable e1 equal 82.4960576575186
variable tmp equal press
variable p1 equal ${tmp}
variable p1 equal 682.437562391712
variable tmp equal pxx
variable pxx1 equal ${tmp}
variable pxx1 equal 2129.09195338114
variable tmp equal pyy
variable pyy1 equal ${tmp}
variable pyy1 equal -1283.36189447625
variable tmp equal pzz
variable pzz1 equal ${tmp}
variable pzz1 equal 1201.58262827025
variable tmp equal pxy
variable pxy1 equal ${tmp}
variable pxy1 equal 2055.95035466296
variable tmp equal pxz
variable pxz1 equal ${tmp}
variable pxz1 equal -3205.89050056274
variable tmp equal pyz
variable pyz1 equal ${tmp}
variable pyz1 equal -1426.32191630158

# Compute elastic constant from pressure tensor

variable C1pos equal ${d1}
variable C1pos equal 6.7725679206425
variable C2pos equal ${d2}
variable C2pos equal 23.2007545190023
variable C3pos equal ${d3}
variable C3pos equal 12.38681953331
variable C4pos equal ${d4}
variable C4pos equal -6.1978722963269
variable C5pos equal ${d5}
variable C5pos equal 16.3025022856089
variable C6pos equal ${d6}
variable C6pos equal -9.14674571463604

# Combine positive and negative

variable C1${dir} equal 0.5*(${C1neg}+${C1pos})
variable C15 equal 0.5*(${C1neg}+${C1pos})
variable C15 equal 0.5*(-1.59483625382305+${C1pos})
variable C15 equal 0.5*(-1.59483625382305+6.7725679206425)
variable C2${dir} equal 0.5*(${C2neg}+${C2pos})
variable C25 equal 0.5*(${C2neg}+${C2pos})
variable C25 equal 0.5*(-29.4837416799909+${C2pos})
variable C25 equal 0.5*(-29.4837416799909+23.2007545190023)
variable C3${dir} equal 0.5*(${C3neg}+${C3pos})
variable C35 equal 0.5*(${C3neg}+${C3pos})
variable C35 equal 0.5*(-6.39936200177325+${C3pos})
variable C35 equal 0.5*(-6.39936200177325+12.38681953331)
variable C4${dir} equal 0.5*(${C4neg}+${C4pos})
variable C45 equal 0.5*(${C4neg}+${C4pos})
variable C45 equal 0.5*(5.43690921262605+${C4pos})
variable C45 equal 0.5*(5.43690921262605+-6.1978722963269)
variable C5${dir} equal 0.5*(${C5neg}+${C5pos})
variable C55 equal 0.5*(${C5neg}+${C5pos})
variable C55 equal 0.5*(27.5304440718606+${C5pos})
variable C55 equal 0.5*(27.5304440718606+16.3025022856089)
variable C6${dir} equal 0.5*(${C6neg}+${C6pos})
variable C65 equal 0.5*(${C6neg}+${C6pos})
variable C65 equal 0.5*(8.49608469748899+${C6pos})
variable C65 equal 0.5*(8.49608469748899+-9.14674571463604)

# Delete dir to make sure it is not reused

variable dir delete

# uxy Perturbation

variable dir equal 6
include ./input/displace_333U-50C-26-vasp.mod
if "${dir} == 1" then    "variable len0 equal ${lx0}"
if "${dir} == 2" then    "variable len0 equal ${ly0}"
if "${dir} == 3" then    "variable len0 equal ${lz0}"
if "${dir} == 4" then    "variable len0 equal ${lz0}"
if "${dir} == 5" then    "variable len0 equal ${lz0}"
if "${dir} == 6" then    "variable len0 equal ${ly0}"
variable len0 equal ${ly0}
variable len0 equal 14.2595986237947

# Reset box and simulation parameters

clear
OMP_NUM_THREADS environment is not set. Defaulting to 1 thread.
  using 1 OpenMP thread(s) per MPI task
box tilt large

The 'box' command has been removed and will be ignored

read_restart restart_333U-50C-26-vasp.equil
Reading restart file ...
  restart file = 10 Sep 2025, LAMMPS = 10 Sep 2025
  restoring atom style full from restart
  triclinic box = (-0.085405392 -0.077652312 -0.11979731) to (15.611817 14.181946 17.583952) with tilt (-7.0109691 2.1166457 0.89157417)
  1 by 1 by 1 MPI processor grid
  restoring pair style lj/cut from restart
  restoring bond style harmonic from restart
  restoring angle style hybrid from restart
  restoring dihedral style harmonic from restart
  365 atoms
  390 bonds
  739 angles
  924 dihedrals
Finding 1-2 1-3 1-4 neighbors ...
  special bond factors lj:    0        0        1       
  special bond factors coul:  0        0        1       
     4 = max # of 1-2 neighbors
     8 = max # of 1-3 neighbors
    12 = max # of special neighbors
  special bonds CPU = 0.000 seconds
  read_restart CPU = 0.001 seconds
include ./input/angles_333U-50C-26-vasp.mod
angle_style hybrid fourier cosine/periodic
angle_coeff 1 fourier 157.882480        0.343737        0.374972        0.281246
angle_coeff 2 fourier 221.735285        0.343737        0.374972        0.281246
angle_coeff 3 fourier 83.380072        0.343737        0.374972        0.281246
angle_coeff 4 fourier 32.417871        0.343737        0.374972        0.281246
angle_coeff 5 fourier 114.246973        0.343737        0.374972        0.281246
angle_coeff 6 fourier 58.020602        0.343737        0.374972        0.281246
angle_coeff 7 fourier 90.420412        0.343737        0.374972        0.281246
angle_coeff 8 fourier 75.498766        0.343737        0.374972        0.281246
angle_coeff 9 cosine/periodic 88.853997              -1               3

# Negative deformation

variable delta equal -${up}*${len0}
variable delta equal -0.02*${len0}
variable delta equal -0.02*14.2595986237947
variable deltaxy equal -${up}*xy
variable deltaxy equal -0.02*xy
variable deltaxz equal -${up}*xz
variable deltaxz equal -0.02*xz
variable deltayz equal -${up}*yz
variable deltayz equal -0.02*yz
if "${dir} == 1" then    "change_box all x delta 0 ${delta} xy delta ${deltaxy} xz delta ${deltaxz} remap units box"
if "${dir} == 2" then    "change_box all y delta 0 ${delta} yz delta ${deltayz} remap units box"
if "${dir} == 3" then    "change_box all z delta 0 ${delta} remap units box"
if "${dir} == 4" then    "change_box all yz delta ${delta} remap units box"
if "${dir} == 5" then    "change_box all xz delta ${delta} remap units box"
if "${dir} == 6" then    "change_box all xy delta ${delta} remap units box"
change_box all xy delta ${delta} remap units box
change_box all xy delta -0.285191972475894 remap units box
Changing box ...
WARNING: Triclinic box skew is large. LAMMPS will run inefficiently. (src/domain.cpp:221)
  triclinic box = (-0.085405392 -0.077652312 -0.11979731) to (15.611817 14.181946 17.583952) with tilt (-7.2961611 2.1166457 0.89157417)

# Relax atoms positions

minimize ${etol} ${ftol} ${maxiter} ${maxeval}
minimize 0 ${ftol} ${maxiter} ${maxeval}
minimize 0 1e-10 ${maxiter} ${maxeval}
minimize 0 1e-10 100000 ${maxeval}
minimize 0 1e-10 100000 100000
Generated 6 of 6 mixed pair_coeff terms from arithmetic mixing rule
Neighbor list info ...
  update: every = 1 steps, delay = 0 steps, check = yes
  max neighbors/atom: 2000, page size: 100000
  master list distance cutoff = 7
  ghost atom cutoff = 7
  binsize = 3.5, bins = 8 5 6
  1 neighbor lists, perpetual/occasional/extra = 1 0 0
  (1) pair lj/cut, perpetual
      attributes: half, newton on
      pair build: half/bin/newton/tri
      stencil: half/bin/3d/tri
      bin: standard
WARNING: Inconsistent image flags
For more information see https://docs.lammps.org/err0027 (src/domain.cpp:1052)
Per MPI rank memory allocation (min/avg/max) = 17.52 | 17.52 | 17.52 Mbytes
   Step          Temp          E_pair         E_mol          TotEng         Press     
    250355   300.35863     -427.11728      633.6891       532.4654       2958.3497    
    250388   300.35863     -442.45229      532.29692      415.7382       737.3703     
Loop time of 0.0269387 on 1 procs for 33 steps with 365 atoms

100.0% CPU use with 1 MPI tasks x 1 OpenMP threads

Minimization stats:
  Stopping criterion = linesearch alpha is zero
  Energy initial, next-to-last, final = 
      206.571825247733   89.8446277894347   89.8446277894347
  Force two-norm initial, final = 178.07885 20.034428
  Force max component initial, final = 20.303472 2.6666218
  Final line search alpha, max atom move = 3.0293116e-11 8.0780286e-11
  Iterations, force evaluations = 33 121

MPI task timing breakdown:
Section |  min time  |  avg time  |  max time  |%varavg| %total
---------------------------------------------------------------
Pair    | 0.020489   | 0.020489   | 0.020489   |   0.0 | 76.06
Bond    | 0.0052994  | 0.0052994  | 0.0052994  |   0.0 | 19.67
Neigh   | 0          | 0          | 0          |   0.0 |  0.00
Comm    | 0.00060541 | 0.00060541 | 0.00060541 |   0.0 |  2.25
Output  | 0          | 0          | 0          |   0.0 |  0.00
Modify  | 0          | 0          | 0          |   0.0 |  0.00
Other   |            | 0.0005445  |            |       |  2.02

Nlocal:            365 ave         365 max         365 min
Histogram: 1 0 0 0 0 0 0 0 0 0
Nghost:           2273 ave        2273 max        2273 min
Histogram: 1 0 0 0 0 0 0 0 0 0
Neighs:          22859 ave       22859 max       22859 min
Histogram: 1 0 0 0 0 0 0 0 0 0

Total # of neighbors = 22859
Ave neighs/atom = 62.627397
Ave special neighs/atom = 6.1863014
Neighbor list builds = 0
Dangerous builds = 0

# Obtain new stress tensor

variable tmp equal pxx
variable pxx1 equal ${tmp}
variable pxx1 equal 2177.20018235321
variable tmp equal pyy
variable pyy1 equal ${tmp}
variable pyy1 equal -1757.97142389691
variable tmp equal pzz
variable pzz1 equal ${tmp}
variable pzz1 equal 1792.8821516296
variable tmp equal pxy
variable pxy1 equal ${tmp}
variable pxy1 equal 5536.13698191943
variable tmp equal pxz
variable pxz1 equal ${tmp}
variable pxz1 equal 1061.04191588758
variable tmp equal pyz
variable pyz1 equal ${tmp}
variable pyz1 equal -2062.40321709773

# Compute elastic constant from pressure tensor

variable C1neg equal ${d1}
variable C1neg equal -6.53202677578215
variable C2neg equal ${d2}
variable C2neg equal -25.5738021661056
variable C3neg equal ${d3}
variable C3neg equal -9.43032191651325
variable C4neg equal ${d4}
variable C4neg equal 3.01746579234615
variable C5neg equal ${d5}
variable C5neg equal 5.03215979664272
variable C6neg equal ${d6}
variable C6neg equal 26.5476788509184

# Reset box and simulation parameters

clear
OMP_NUM_THREADS environment is not set. Defaulting to 1 thread.
  using 1 OpenMP thread(s) per MPI task
box tilt large

The 'box' command has been removed and will be ignored

read_restart restart_333U-50C-26-vasp.equil
Reading restart file ...
  restart file = 10 Sep 2025, LAMMPS = 10 Sep 2025
  restoring atom style full from restart
  triclinic box = (-0.085405392 -0.077652312 -0.11979731) to (15.611817 14.181946 17.583952) with tilt (-7.0109691 2.1166457 0.89157417)
  1 by 1 by 1 MPI processor grid
  restoring pair style lj/cut from restart
  restoring bond style harmonic from restart
  restoring angle style hybrid from restart
  restoring dihedral style harmonic from restart
  365 atoms
  390 bonds
  739 angles
  924 dihedrals
Finding 1-2 1-3 1-4 neighbors ...
  special bond factors lj:    0        0        1       
  special bond factors coul:  0        0        1       
     4 = max # of 1-2 neighbors
     8 = max # of 1-3 neighbors
    12 = max # of special neighbors
  special bonds CPU = 0.000 seconds
  read_restart CPU = 0.001 seconds
include ./input/angles_333U-50C-26-vasp.mod
angle_style hybrid fourier cosine/periodic
angle_coeff 1 fourier 157.882480        0.343737        0.374972        0.281246
angle_coeff 2 fourier 221.735285        0.343737        0.374972        0.281246
angle_coeff 3 fourier 83.380072        0.343737        0.374972        0.281246
angle_coeff 4 fourier 32.417871        0.343737        0.374972        0.281246
angle_coeff 5 fourier 114.246973        0.343737        0.374972        0.281246
angle_coeff 6 fourier 58.020602        0.343737        0.374972        0.281246
angle_coeff 7 fourier 90.420412        0.343737        0.374972        0.281246
angle_coeff 8 fourier 75.498766        0.343737        0.374972        0.281246
angle_coeff 9 cosine/periodic 88.853997              -1               3

# Positive deformation

variable delta equal ${up}*${len0}
variable delta equal 0.02*${len0}
variable delta equal 0.02*14.2595986237947
variable deltaxy equal ${up}*xy
variable deltaxy equal 0.02*xy
variable deltaxz equal ${up}*xz
variable deltaxz equal 0.02*xz
variable deltayz equal ${up}*yz
variable deltayz equal 0.02*yz
if "${dir} == 1" then    "change_box all x delta 0 ${delta} xy delta ${deltaxy} xz delta ${deltaxz} remap units box"
if "${dir} == 2" then    "change_box all y delta 0 ${delta} yz delta ${deltayz} remap units box"
if "${dir} == 3" then    "change_box all z delta 0 ${delta} remap units box"
if "${dir} == 4" then    "change_box all yz delta ${delta} remap units box"
if "${dir} == 5" then    "change_box all xz delta ${delta} remap units box"
if "${dir} == 6" then    "change_box all xy delta ${delta} remap units box"
change_box all xy delta ${delta} remap units box
change_box all xy delta 0.285191972475894 remap units box
Changing box ...
  triclinic box = (-0.085405392 -0.077652312 -0.11979731) to (15.611817 14.181946 17.583952) with tilt (-6.7257771 2.1166457 0.89157417)

# Relax atoms positions

minimize ${etol} ${ftol} ${maxiter} ${maxeval}
minimize 0 ${ftol} ${maxiter} ${maxeval}
minimize 0 1e-10 ${maxiter} ${maxeval}
minimize 0 1e-10 100000 ${maxeval}
minimize 0 1e-10 100000 100000
Generated 6 of 6 mixed pair_coeff terms from arithmetic mixing rule
Neighbor list info ...
  update: every = 1 steps, delay = 0 steps, check = yes
  max neighbors/atom: 2000, page size: 100000
  master list distance cutoff = 7
  ghost atom cutoff = 7
  binsize = 3.5, bins = 8 5 6
  1 neighbor lists, perpetual/occasional/extra = 1 0 0
  (1) pair lj/cut, perpetual
      attributes: half, newton on
      pair build: half/bin/newton/tri
      stencil: half/bin/3d/tri
      bin: standard
WARNING: Inconsistent image flags
For more information see https://docs.lammps.org/err0027 (src/domain.cpp:1052)
Per MPI rank memory allocation (min/avg/max) = 17.52 | 17.52 | 17.52 Mbytes
   Step          Temp          E_pair         E_mol          TotEng         Press     
    250355   300.35863     -426.12582      631.99901      531.76677      3721.8378    
    250404   300.35863     -441.75415      521.98437      406.1238       1009.7221    
Loop time of 0.0274787 on 1 procs for 49 steps with 365 atoms

100.0% CPU use with 1 MPI tasks x 1 OpenMP threads

Minimization stats:
  Stopping criterion = linesearch alpha is zero
  Energy initial, next-to-last, final = 
      205.873196569264   80.2302220324548   80.2302220324548
  Force two-norm initial, final = 178.3067 13.610542
  Force max component initial, final = 24.674349 2.0551694
  Final line search alpha, max atom move = 6.4379101e-11 1.3230996e-10
  Iterations, force evaluations = 49 151

MPI task timing breakdown:
Section |  min time  |  avg time  |  max time  |%varavg| %total
---------------------------------------------------------------
Pair    | 0.020935   | 0.020935   | 0.020935   |   0.0 | 76.19
Bond    | 0.0053943  | 0.0053943  | 0.0053943  |   0.0 | 19.63
Neigh   | 0          | 0          | 0          |   0.0 |  0.00
Comm    | 0.00062919 | 0.00062919 | 0.00062919 |   0.0 |  2.29
Output  | 0          | 0          | 0          |   0.0 |  0.00
Modify  | 0          | 0          | 0          |   0.0 |  0.00
Other   |            | 0.00052    |            |       |  1.89

Nlocal:            365 ave         365 max         365 min
Histogram: 1 0 0 0 0 0 0 0 0 0
Nghost:           2241 ave        2241 max        2241 min
Histogram: 1 0 0 0 0 0 0 0 0 0
Neighs:          22841 ave       22841 max       22841 min
Histogram: 1 0 0 0 0 0 0 0 0 0

Total # of neighbors = 22841
Ave neighs/atom = 62.578082
Ave special neighs/atom = 6.1863014
Neighbor list builds = 0
Dangerous builds = 0

# Obtain new stress tensor

variable tmp equal pe
variable e1 equal ${tmp}
variable e1 equal 80.2302220324548
variable tmp equal press
variable p1 equal ${tmp}
variable p1 equal 1009.72205522643
variable tmp equal pxx
variable pxx1 equal ${tmp}
variable pxx1 equal 2371.14813356833
variable tmp equal pyy
variable pyy1 equal ${tmp}
variable pyy1 equal -1631.67882463713
variable tmp equal pzz
variable pzz1 equal ${tmp}
variable pzz1 equal 2289.69685674809
variable tmp equal pxy
variable pxy1 equal ${tmp}
variable pxy1 equal -1914.12065126473
variable tmp equal pxz
variable pxz1 equal ${tmp}
variable pxz1 equal 1267.81714846362
variable tmp equal pyz
variable pyz1 equal ${tmp}
variable pyz1 equal -997.958303475579

# Compute elastic constant from pressure tensor

variable C1pos equal ${d1}
variable C1pos equal 5.56228701970655
variable C2pos equal ${d2}
variable C2pos equal 24.9423391698067
variable C3pos equal ${d3}
variable C3pos equal 6.9462483909208
variable C4pos equal ${d4}
variable C4pos equal -8.33969036045691
variable C5pos equal ${d5}
variable C5pos equal -6.06603595952292
variable C6pos equal ${d6}
variable C6pos equal 10.7036093150024

# Combine positive and negative

variable C1${dir} equal 0.5*(${C1neg}+${C1pos})
variable C16 equal 0.5*(${C1neg}+${C1pos})
variable C16 equal 0.5*(-6.53202677578215+${C1pos})
variable C16 equal 0.5*(-6.53202677578215+5.56228701970655)
variable C2${dir} equal 0.5*(${C2neg}+${C2pos})
variable C26 equal 0.5*(${C2neg}+${C2pos})
variable C26 equal 0.5*(-25.5738021661056+${C2pos})
variable C26 equal 0.5*(-25.5738021661056+24.9423391698067)
variable C3${dir} equal 0.5*(${C3neg}+${C3pos})
variable C36 equal 0.5*(${C3neg}+${C3pos})
variable C36 equal 0.5*(-9.43032191651325+${C3pos})
variable C36 equal 0.5*(-9.43032191651325+6.9462483909208)
variable C4${dir} equal 0.5*(${C4neg}+${C4pos})
variable C46 equal 0.5*(${C4neg}+${C4pos})
variable C46 equal 0.5*(3.01746579234615+${C4pos})
variable C46 equal 0.5*(3.01746579234615+-8.33969036045691)
variable C5${dir} equal 0.5*(${C5neg}+${C5pos})
variable C56 equal 0.5*(${C5neg}+${C5pos})
variable C56 equal 0.5*(5.03215979664272+${C5pos})
variable C56 equal 0.5*(5.03215979664272+-6.06603595952292)
variable C6${dir} equal 0.5*(${C6neg}+${C6pos})
variable C66 equal 0.5*(${C6neg}+${C6pos})
variable C66 equal 0.5*(26.5476788509184+${C6pos})
variable C66 equal 0.5*(26.5476788509184+10.7036093150024)

# Delete dir to make sure it is not reused

variable dir delete

# Output final values

variable C11all equal ${C11}
variable C11all equal 68.5008901080975
variable C22all equal ${C22}
variable C22all equal 63.0442172834019
variable C33all equal ${C33}
variable C33all equal 67.1463328536503

variable C12all equal 0.5*(${C12}+${C21})
variable C12all equal 0.5*(26.558630532057+${C21})
variable C12all equal 0.5*(26.558630532057+23.40415991885)
variable C13all equal 0.5*(${C13}+${C31})
variable C13all equal 0.5*(25.450277810579+${C31})
variable C13all equal 0.5*(25.450277810579+23.2578670011762)
variable C23all equal 0.5*(${C23}+${C32})
variable C23all equal 0.5*(30.9151832115337+${C32})
variable C23all equal 0.5*(30.9151832115337+29.7423626818929)

variable C44all equal ${C44}
variable C44all equal 23.2966806717519
variable C55all equal ${C55}
variable C55all equal 21.9164731787347
variable C66all equal ${C66}
variable C66all equal 18.6256440829604

variable C14all equal 0.5*(${C14}+${C41})
variable C14all equal 0.5*(-1.76507263393753+${C41})
variable C14all equal 0.5*(-1.76507263393753+-0.367961975048825)
variable C15all equal 0.5*(${C15}+${C51})
variable C15all equal 0.5*(2.58886583340972+${C51})
variable C15all equal 0.5*(2.58886583340972+0.6407724918581)
variable C16all equal 0.5*(${C16}+${C61})
variable C16all equal 0.5*(-0.4848698780378+${C61})
variable C16all equal 0.5*(-0.4848698780378+-3.06536957685644)

variable C24all equal 0.5*(${C24}+${C42})
variable C24all equal 0.5*(0.209063002986401+${C42})
variable C24all equal 0.5*(0.209063002986401+0.369546070471075)
variable C25all equal 0.5*(${C25}+${C52})
variable C25all equal 0.5*(-3.1414935804943+${C52})
variable C25all equal 0.5*(-3.1414935804943+-4.4927352483532)
variable C26all equal 0.5*(${C26}+${C62})
variable C26all equal 0.5*(-0.31573149814945+${C62})
variable C26all equal 0.5*(-0.31573149814945+-1.78580682190135)

variable C34all equal 0.5*(${C34}+${C43})
variable C34all equal 0.5*(-3.30588150251342+${C43})
variable C34all equal 0.5*(-3.30588150251342+-4.5911844034822)
variable C35all equal 0.5*(${C35}+${C53})
variable C35all equal 0.5*(2.99372876576837+${C53})
variable C35all equal 0.5*(2.99372876576837+0.503548856466895)
variable C36all equal 0.5*(${C36}+${C63})
variable C36all equal 0.5*(-1.24203676279622+${C63})
variable C36all equal 0.5*(-1.24203676279622+-0.439003453193625)

variable C45all equal 0.5*(${C45}+${C54})
variable C45all equal 0.5*(-0.380481541850425+${C54})
variable C45all equal 0.5*(-0.380481541850425+0.646566057316675)
variable C46all equal 0.5*(${C46}+${C64})
variable C46all equal 0.5*(-2.66111228405538+${C64})
variable C46all equal 0.5*(-2.66111228405538+-1.098743641082)
variable C56all equal 0.5*(${C56}+${C65})
variable C56all equal 0.5*(-0.5169380814401+${C65})
variable C56all equal 0.5*(-0.5169380814401+-0.325330508573525)

# Average moduli for cubic crystals

variable C11cubic equal (${C11all}+${C22all}+${C33all})/3.0
variable C11cubic equal (68.5008901080975+${C22all}+${C33all})/3.0
variable C11cubic equal (68.5008901080975+63.0442172834019+${C33all})/3.0
variable C11cubic equal (68.5008901080975+63.0442172834019+67.1463328536503)/3.0
variable C12cubic equal (${C12all}+${C13all}+${C23all})/3.0
variable C12cubic equal (24.9813952254535+${C13all}+${C23all})/3.0
variable C12cubic equal (24.9813952254535+24.3540724058776+${C23all})/3.0
variable C12cubic equal (24.9813952254535+24.3540724058776+30.3287729467133)/3.0
variable C44cubic equal (${C44all}+${C55all}+${C66all})/3.0
variable C44cubic equal (23.2966806717519+${C55all}+${C66all})/3.0
variable C44cubic equal (23.2966806717519+21.9164731787347+${C66all})/3.0
variable C44cubic equal (23.2966806717519+21.9164731787347+18.6256440829604)/3.0

variable bulkmodulus equal (${C11cubic}+2*${C12cubic})/3.0
variable bulkmodulus equal (66.2304800817166+2*${C12cubic})/3.0
variable bulkmodulus equal (66.2304800817166+2*26.5547468593481)/3.0
variable shearmodulus1 equal ${C44cubic}
variable shearmodulus1 equal 21.279599311149
variable shearmodulus2 equal (${C11cubic}-${C12cubic})/2.0
variable shearmodulus2 equal (66.2304800817166-${C12cubic})/2.0
variable shearmodulus2 equal (66.2304800817166-26.5547468593481)/2.0
variable poissonratio equal 1.0/(1.0+${C11cubic}/${C12cubic})
variable poissonratio equal 1.0/(1.0+66.2304800817166/${C12cubic})
variable poissonratio equal 1.0/(1.0+66.2304800817166/26.5547468593481)

print "Elastic Constant 1 1 = ${C11all}"
Elastic Constant 1 1 = 68.5008901080975
print "Elastic Constant 2 2 = ${C22all}"
Elastic Constant 2 2 = 63.0442172834019
print "Elastic Constant 3 3 = ${C33all}"
Elastic Constant 3 3 = 67.1463328536503

print "Elastic Constant 1 2 = ${C12all}"
Elastic Constant 1 2 = 24.9813952254535
print "Elastic Constant 1 3 = ${C13all}"
Elastic Constant 1 3 = 24.3540724058776
print "Elastic Constant 2 3 = ${C23all}"
Elastic Constant 2 3 = 30.3287729467133

print "Elastic Constant 4 4 = ${C44all}"
Elastic Constant 4 4 = 23.2966806717519
print "Elastic Constant 5 5 = ${C55all}"
Elastic Constant 5 5 = 21.9164731787347
print "Elastic Constant 6 6 = ${C66all}"
Elastic Constant 6 6 = 18.6256440829604

print "Elastic Constant 1 4 = ${C14all}"
Elastic Constant 1 4 = -1.06651730449318
print "Elastic Constant 1 5 = ${C15all}"
Elastic Constant 1 5 = 1.61481916263391
print "Elastic Constant 1 6 = ${C16all}"
Elastic Constant 1 6 = -1.77511972744712

print "Elastic Constant 2 4 = ${C24all}"
Elastic Constant 2 4 = 0.289304536728738
print "Elastic Constant 2 5 = ${C25all}"
Elastic Constant 2 5 = -3.81711441442375
print "Elastic Constant 2 6 = ${C26all}"
Elastic Constant 2 6 = -1.0507691600254

print "Elastic Constant 3 4 = ${C34all}"
Elastic Constant 3 4 = -3.94853295299781
print "Elastic Constant 3 5 = ${C35all}"
Elastic Constant 3 5 = 1.74863881111763
print "Elastic Constant 3 6 = ${C36all}"
Elastic Constant 3 6 = -0.840520107994922

print "Elastic Constant 4 5 = ${C45all}"
Elastic Constant 4 5 = 0.133042257733125
print "Elastic Constant 4 6 = ${C46all}"
Elastic Constant 4 6 = -1.87992796256869
print "Elastic Constant 5 6 = ${C56all}"
Elastic Constant 5 6 = -0.421134295006813

print "Bulk Modulus = ${bulkmodulus} ${cunits}"
Bulk Modulus = 39.7799912668043 GPa
print "Shear Modulus 1 = ${shearmodulus1} ${cunits}"
Shear Modulus 1 = 21.279599311149 GPa
print "Shear Modulus 2 = ${shearmodulus2} ${cunits}"
Shear Modulus 2 = 19.8378666111843 GPa
print "Poisson Ratio = ${poissonratio}"
Poisson Ratio = 0.286195849649806

variable rho equal density
print "density (g/cm^3) = ${rho}"
density (g/cm^3) = 1.66834042211676
Total wall time: 0:01:03
