units           real
atom_style      full
boundary        p p p

pair_style      lj/cut 5.000
bond_style      harmonic
angle_style     hybrid fourier cosine/periodic
dihedral_style  harmonic

special_bonds   lj/coul 0.0 0.0 1.0
dielectric      1.0
pair_modify     tail yes mix arithmetic
box tilt        large

The 'box' command has been removed and will be ignored

read_data       ./dat/data.333-EXP-27-vasp
Reading data file ...
  triclinic box = (0 0 0) to (15.144723 13.028305 16.498013) with tilt (-7.69741 -0.636627 0.58048)
WARNING: Triclinic box skew is large. LAMMPS will run inefficiently. (src/domain.cpp:221)
  1 by 1 by 1 MPI processor grid
  reading atoms ...
  295 atoms
  scanning bonds ...
  4 = max bonds/atom
  scanning angles ...
  6 = max angles/atom
  scanning dihedrals ...
  24 = max dihedrals/atom
  triclinic box = (0 0 0) to (15.144723 13.028305 16.498013) with tilt (-7.69741 -0.636627 0.58048)
WARNING: Triclinic box skew is large. LAMMPS will run inefficiently. (src/domain.cpp:221)
  1 by 1 by 1 MPI processor grid
  reading bonds ...
  315 bonds
  reading angles ...
  599 angles
  reading dihedrals ...
  759 dihedrals
Finding 1-2 1-3 1-4 neighbors ...
  special bond factors lj:    0        0        1       
  special bond factors coul:  0        0        1       
     4 = max # of 1-2 neighbors
     8 = max # of 1-3 neighbors
    12 = max # of special neighbors
  special bonds CPU = 0.000 seconds
  read_data CPU = 0.008 seconds

#### Atom Groupings ####
group           fram     id   1:295
295 atoms in group fram
#### END Atom Groupings ####

compute am all property/atom mass
dump        atom_pos all extxyz 100 ./output/333-EXP-27-vasp.lammpstrj
dump_modify atom_pos element Si C O H mass yes
thermo          1000
thermo_style    custom step temp pe ke etotal press vol density

variable up equal 2e-2
variable cfac equal 1.0e-4
variable cunits string GPa

# Define minimization parameters
variable etol equal 0.0
variable ftol equal 1.0e-10
variable maxiter equal 100000
variable maxeval equal 100000
variable dmax equal 1.0e-2

variable temp equal 300.0
variable thermal_damp index 100.0
variable pressure_damp index 500.0

fix relax all box/relax aniso 0.0 vmax 0.001
unfix relax
minimize ${etol} ${ftol} ${maxiter} ${maxeval}
minimize 0 ${ftol} ${maxiter} ${maxeval}
minimize 0 1e-10 ${maxiter} ${maxeval}
minimize 0 1e-10 100000 ${maxeval}
minimize 0 1e-10 100000 100000
Generated 6 of 6 mixed pair_coeff terms from arithmetic mixing rule
Neighbor list info ...
  update: every = 1 steps, delay = 0 steps, check = yes
  max neighbors/atom: 2000, page size: 100000
  master list distance cutoff = 7
  ghost atom cutoff = 7
  binsize = 3.5, bins = 7 4 5
  1 neighbor lists, perpetual/occasional/extra = 1 0 0
  (1) pair lj/cut, perpetual
      attributes: half, newton on
      pair build: half/bin/newton/tri
      stencil: half/bin/3d/tri
      bin: standard
WARNING: Inconsistent image flags
For more information see https://docs.lammps.org/err0027 (src/domain.cpp:1052)
Per MPI rank memory allocation (min/avg/max) = 17.5 | 17.5 | 17.5 Mbytes
   Step          Temp          PotEng         KinEng         TotEng         Press          Volume        Density    
         0   0              881.89798      0              881.89798      80050.316      3255.2241      1.6067572    
       115   0             -76.168447      0             -76.168447      6958.1783      3255.2241      1.6067572    
Loop time of 0.0633715 on 1 procs for 115 steps with 295 atoms

99.9% CPU use with 1 MPI tasks x 1 OpenMP threads

Minimization stats:
  Stopping criterion = linesearch alpha is zero
  Energy initial, next-to-last, final = 
      881.897979827673  -76.1684474859383  -76.1684474859383
  Force two-norm initial, final = 731.56757 22.693629
  Force max component initial, final = 92.004632 2.9728984
  Final line search alpha, max atom move = 2.1528764e-11 6.4002828e-11
  Iterations, force evaluations = 115 288

MPI task timing breakdown:
Section |  min time  |  avg time  |  max time  |%varavg| %total
---------------------------------------------------------------
Pair    | 0.039713   | 0.039713   | 0.039713   |   0.0 | 62.67
Bond    | 0.010201   | 0.010201   | 0.010201   |   0.0 | 16.10
Neigh   | 0.009994   | 0.009994   | 0.009994   |   0.0 | 15.77
Comm    | 0.0015609  | 0.0015609  | 0.0015609  |   0.0 |  2.46
Output  | 0.00043246 | 0.00043246 | 0.00043246 |   0.0 |  0.68
Modify  | 0          | 0          | 0          |   0.0 |  0.00
Other   |            | 0.001471   |            |       |  2.32

Nlocal:            295 ave         295 max         295 min
Histogram: 1 0 0 0 0 0 0 0 0 0
Nghost:           2078 ave        2078 max        2078 min
Histogram: 1 0 0 0 0 0 0 0 0 0
Neighs:          18124 ave       18124 max       18124 min
Histogram: 1 0 0 0 0 0 0 0 0 0

Total # of neighbors = 18124
Ave neighs/atom = 61.437288
Ave special neighs/atom = 6.1966102
Neighbor list builds = 5
Dangerous builds = 0

# Generating the full routine as described in the paper for UFF
fix nvt_relax   all nvt temp 300 300 ${thermal_damp}
fix nvt_relax   all nvt temp 300 300 100.0
run 100000      # 100 picoseconds
Generated 6 of 6 mixed pair_coeff terms from arithmetic mixing rule
WARNING: Inconsistent image flags
For more information see https://docs.lammps.org/err0027 (src/domain.cpp:1052)
Per MPI rank memory allocation (min/avg/max) = 17.43 | 17.43 | 17.43 Mbytes
   Step          Temp          PotEng         KinEng         TotEng         Press          Volume        Density    
       115   0             -76.168447      0             -76.168447      6958.1783      3255.2241      1.6067572    
      1000   258.01029      75.219429      226.10942      301.32885      8953.0671      3255.2241      1.6067572    
      2000   306.15052      182.47449      268.2975       450.77199      9967.2869      3255.2241      1.6067572    
      3000   296.08665      145.78743      259.47795      405.26538      11562.122      3255.2241      1.6067572    
      4000   295.68523      152.09931      259.12617      411.22548      5546.1615      3255.2241      1.6067572    
      5000   296.50988      171.7461       259.84885      431.59495      8397.5541      3255.2241      1.6067572    
      6000   280.93319      155.43587      246.19809      401.63397      10315.692      3255.2241      1.6067572    
      7000   312.37474      153.01059      273.75215      426.76273      7259.3762      3255.2241      1.6067572    
      8000   316.945        125.90205      277.75733      403.65939      7088.0527      3255.2241      1.6067572    
      9000   296.20927      161.6984       259.58541      421.28381      7389.2583      3255.2241      1.6067572    
     10000   282.65572      145.87902      247.70764      393.58666      6268.1665      3255.2241      1.6067572    
     11000   315.87824      161.41746      276.82248      438.23994      8031.8756      3255.2241      1.6067572    
     12000   292.63978      154.53851      256.45726      410.99577      9656.6351      3255.2241      1.6067572    
     13000   310.14119      180.00437      271.79476      451.79913      9708.8902      3255.2241      1.6067572    
     14000   289.54176      163.61726      253.74229      417.35955      8731.1601      3255.2241      1.6067572    
     15000   308.22421      175.18307      270.1148       445.29787      6450.6468      3255.2241      1.6067572    
     16000   311.03878      146.16747      272.58138      418.74884      5848.956       3255.2241      1.6067572    
     17000   318.52188      148.24587      279.13925      427.38512      7357.4363      3255.2241      1.6067572    
     18000   307.76275      151.89632      269.7104       421.60671      6945.5114      3255.2241      1.6067572    
     19000   280.19026      159.45297      245.54702      404.99999      7350.8434      3255.2241      1.6067572    
     20000   302.14255      149.51419      264.78509      414.29928      7393.0621      3255.2241      1.6067572    
     21000   302.07571      181.27248      264.72651      445.99899      8926.5983      3255.2241      1.6067572    
     22000   301.90011      142.92526      264.57262      407.49788      11829.971      3255.2241      1.6067572    
     23000   310.49697      134.46192      272.10655      406.56847      9025.4148      3255.2241      1.6067572    
     24000   307.67968      156.35072      269.63759      425.98832      15688.112      3255.2241      1.6067572    
     25000   297.46357      138.99499      260.68463      399.67962      9772.9496      3255.2241      1.6067572    
     26000   312.29323      153.0136       273.68072      426.69432      11015.791      3255.2241      1.6067572    
     27000   278.75937      149.25342      244.29305      393.54647      9360.5065      3255.2241      1.6067572    
     28000   311.65606      160.22529      273.12233      433.34762     -1613.8681      3255.2241      1.6067572    
     29000   295.89251      161.09203      259.30782      420.39985      12894.601      3255.2241      1.6067572    
     30000   318.60164      153.92966      279.20914      433.13881      8207.1752      3255.2241      1.6067572    
     31000   277.42438      167.68457      243.12312      410.80768      8883.3184      3255.2241      1.6067572    
     32000   301.48817      157.95682      264.21161      422.16843      7385.2948      3255.2241      1.6067572    
     33000   285.50739      133.41803      250.20673      383.62476      4538.1175      3255.2241      1.6067572    
     34000   295.80458      169.50204      259.23076      428.7328       8124.0764      3255.2241      1.6067572    
     35000   270.36791      160.05209      236.93912      396.99122      12469.167      3255.2241      1.6067572    
     36000   297.17384      165.62215      260.43072      426.05287      4846.4626      3255.2241      1.6067572    
     37000   272.08543      166.85959      238.44429      405.30387      17295.102      3255.2241      1.6067572    
     38000   320.89239      156.95692      281.21666      438.17358      8632.424       3255.2241      1.6067572    
     39000   273.87274      156.92193      240.01061      396.93254      6216.6768      3255.2241      1.6067572    
     40000   316.60946      163.70952      277.46328      441.1728       14403.085      3255.2241      1.6067572    
     41000   295.5695       159.17748      259.02474      418.20222      9998.0337      3255.2241      1.6067572    
     42000   301.75209      151.16573      264.44291      415.60864      10832.788      3255.2241      1.6067572    
     43000   277.98734      171.12778      243.61647      414.74426      4271.6715      3255.2241      1.6067572    
     44000   305.79928      147.35197      267.98969      415.34166      8361.6986      3255.2241      1.6067572    
     45000   305.0987       158.41041      267.37573      425.78615      13290.389      3255.2241      1.6067572    
     46000   294.18885      139.67911      257.8148       397.49391      10235.356      3255.2241      1.6067572    
     47000   303.52754      156.84562      265.99884      422.84446      13156.334      3255.2241      1.6067572    
     48000   272.57692      152.78766      238.87501      391.66267      6532.5968      3255.2241      1.6067572    
     49000   290.80493      165.34339      254.84927      420.19266      3745.6369      3255.2241      1.6067572    
     50000   313.43988      163.18293      274.6856       437.86852      3757.0045      3255.2241      1.6067572    
     51000   292.29911      174.56803      256.1587       430.72674      10777.469      3255.2241      1.6067572    
     52000   295.25392      177.63705      258.74818      436.38523      8707.2463      3255.2241      1.6067572    
     53000   275.85604      166.3556       241.74869      408.10429      11241.245      3255.2241      1.6067572    
     54000   297.38768      142.86399      260.61812      403.48211      13789.037      3255.2241      1.6067572    
     55000   314.09749      133.51418      275.2619       408.77608      4809.7001      3255.2241      1.6067572    
     56000   288.92013      150.32024      253.19751      403.51775      6068.1728      3255.2241      1.6067572    
     57000   310.48869      152.3808       272.09929      424.48009      6764.6467      3255.2241      1.6067572    
     58000   279.63329      159.36366      245.05891      404.42257      3347.7133      3255.2241      1.6067572    
     59000   293.16012      158.69316      256.91326      415.60642      6647.0624      3255.2241      1.6067572    
     60000   330.41388      176.36852      289.5609       465.92941      7232.3423      3255.2241      1.6067572    
     61000   314.97954      140.18687      276.03489      416.22175      6593.3605      3255.2241      1.6067572    
     62000   314.59095      170.19839      275.69435      445.89273      6132.9607      3255.2241      1.6067572    
     63000   297.0917       145.55946      260.35873      405.91819      8885.8759      3255.2241      1.6067572    
     64000   280.22243      136.98937      245.57521      382.56458      8050.7355      3255.2241      1.6067572    
     65000   300.29805      176.54195      263.16865      439.7106       5042.5459      3255.2241      1.6067572    
     66000   285.23869      163.11108      249.97125      413.08233      9862.4745      3255.2241      1.6067572    
     67000   326.22143      170.0293       285.88681      455.91611      8715.5214      3255.2241      1.6067572    
     68000   304.65057      149.7329       266.98301      416.71591      13749.898      3255.2241      1.6067572    
     69000   298.65648      159.49053      261.73005      421.22058      6689.3169      3255.2241      1.6067572    
     70000   296.21251      172.35333      259.58825      431.94158      6893.5893      3255.2241      1.6067572    
     71000   284.50732      154.65513      249.33031      403.98544      12622.338      3255.2241      1.6067572    
     72000   304.74862      167.46497      267.06894      434.53391      6885.1016      3255.2241      1.6067572    
     73000   287.36215      162.23703      251.83217      414.0692       5328.4401      3255.2241      1.6067572    
     74000   307.48952      175.5022       269.47095      444.97315      9451.1499      3255.2241      1.6067572    
     75000   300.84129      149.31064      263.64472      412.95535      12164.482      3255.2241      1.6067572    
     76000   310.01446      146.88461      271.6837       418.56832      7686.6949      3255.2241      1.6067572    
     77000   288.71959      175.84092      253.02177      428.86269      6615.8529      3255.2241      1.6067572    
     78000   288.57066      134.90911      252.89125      387.80037      4512.0071      3255.2241      1.6067572    
     79000   306.4821       162.75779      268.58808      431.34587      5313.4645      3255.2241      1.6067572    
     80000   317.69067      166.55781      278.41081      444.96862      11817.419      3255.2241      1.6067572    
     81000   303.27231      150.05707      265.77516      415.83223      5915.5477      3255.2241      1.6067572    
     82000   328.49776      143.25928      287.88169      431.14097      4000.1419      3255.2241      1.6067572    
     83000   302.80342      144.10897      265.36425      409.47322      5103.7943      3255.2241      1.6067572    
     84000   298.5531       173.49136      261.63944      435.1308       9491.5418      3255.2241      1.6067572    
     85000   296.62716      141.61807      259.95163      401.5697       6647.9178      3255.2241      1.6067572    
     86000   290.9086       166.97995      254.94012      421.92008      7130.9684      3255.2241      1.6067572    
     87000   285.10187      141.76719      249.85135      391.61853      8286.2969      3255.2241      1.6067572    
     88000   311.82279      154.13738      273.26845      427.40582      14140.82       3255.2241      1.6067572    
     89000   294.18044      147.56898      257.80743      405.37641      2352.2525      3255.2241      1.6067572    
     90000   313.18175      128.03852      274.45938      402.4979       9061.5628      3255.2241      1.6067572    
     91000   320.2826       177.37031      280.68227      458.05258      14987.478      3255.2241      1.6067572    
     92000   290.72777      142.76049      254.78165      397.54214      8958.3116      3255.2241      1.6067572    
     93000   301.52756      147.28517      264.24613      411.53131      10204.811      3255.2241      1.6067572    
     94000   298.62203      164.78165      261.69985      426.4815       10177.319      3255.2241      1.6067572    
     95000   281.63935      161.52899      246.81694      408.34593      10285.309      3255.2241      1.6067572    
     96000   315.78888      160.74242      276.74416      437.48658      8331.7787      3255.2241      1.6067572    
     97000   311.68871      134.88244      273.15094      408.03338      7195.1855      3255.2241      1.6067572    
     98000   282.54703      167.11338      247.61239      414.72577      9123.5949      3255.2241      1.6067572    
     99000   305.36117      170.48381      267.60575      438.08956      11766.563      3255.2241      1.6067572    
    100000   280.79427      177.10729      246.07635      423.18364      1409.7743      3255.2241      1.6067572    
    100115   304.75851      150.19089      267.0776       417.26849      11136.804      3255.2241      1.6067572    
Loop time of 18.415 on 1 procs for 100000 steps with 295 atoms

Performance: 469.182 ns/day, 0.051 hours/ns, 5430.353 timesteps/s, 1.602 Matom-step/s
99.8% CPU use with 1 MPI tasks x 1 OpenMP threads

MPI task timing breakdown:
Section |  min time  |  avg time  |  max time  |%varavg| %total
---------------------------------------------------------------
Pair    | 10.416     | 10.416     | 10.416     |   0.0 | 56.57
Bond    | 2.8325     | 2.8325     | 2.8325     |   0.0 | 15.38
Neigh   | 3.8894     | 3.8894     | 3.8894     |   0.0 | 21.12
Comm    | 0.47592    | 0.47592    | 0.47592    |   0.0 |  2.58
Output  | 0.41525    | 0.41525    | 0.41525    |   0.0 |  2.25
Modify  | 0.28066    | 0.28066    | 0.28066    |   0.0 |  1.52
Other   |            | 0.1047     |            |       |  0.57

Nlocal:            295 ave         295 max         295 min
Histogram: 1 0 0 0 0 0 0 0 0 0
Nghost:           2065 ave        2065 max        2065 min
Histogram: 1 0 0 0 0 0 0 0 0 0
Neighs:          18055 ave       18055 max       18055 min
Histogram: 1 0 0 0 0 0 0 0 0 0

Total # of neighbors = 18055
Ave neighs/atom = 61.20339
Ave special neighs/atom = 6.1966102
Neighbor list builds = 2059
Dangerous builds = 0
unfix           nvt_relax

fix npt_relax   all npt temp 300 300 ${thermal_damp} iso 0 0 ${pressure_damp}
fix npt_relax   all npt temp 300 300 100.0 iso 0 0 ${pressure_damp}
fix npt_relax   all npt temp 300 300 100.0 iso 0 0 500.0
run 100000      # 100 picoseconds
Generated 6 of 6 mixed pair_coeff terms from arithmetic mixing rule
WARNING: Inconsistent image flags
For more information see https://docs.lammps.org/err0027 (src/domain.cpp:1052)
Per MPI rank memory allocation (min/avg/max) = 17.44 | 17.44 | 17.44 Mbytes
   Step          Temp          PotEng         KinEng         TotEng         Press          Volume        Density    
    100115   304.75851      150.19089      267.0776       417.26849      11136.804      3255.2241      1.6067572    
    101000   312.79723      172.27553      274.1224       446.39794      6752.881       3329.68        1.5708281    
    102000   291.05244      161.54532      255.06618      416.6115      -765.68355      3326.1821      1.57248      
    103000   319.3974       151.45004      279.90651      431.35655     -2313.213       3393.7138      1.5411892    
    104000   279.85651      149.70361      245.25453      394.95814     -419.93287      3329.8828      1.5707324    
    105000   317.43957      141.50085      278.19076      419.69161      2334.1755      3327.7565      1.5717361    
    106000   285.15294      178.19402      249.89611      428.09013     -3308.5106      3358.9313      1.5571485    
    107000   329.44635      138.15017      288.713        426.86316      4307.9779      3355.2788      1.5588436    
    108000   290.8051       134.57989      254.84942      389.42931     -784.48413      3353.521       1.5596607    
    109000   278.53732      166.96372      244.09845      411.06217      3253.8781      3317.9291      1.5763914    
    110000   328.53773      174.15231      287.91672      462.06902     -3988.6491      3373.4349      1.5504538    
    111000   300.4693       148.18781      263.31873      411.50653     -1171.8027      3329.44        1.5709413    
    112000   288.13518      176.37912      252.50961      428.88873      5511.6132      3348.3803      1.5620552    
    113000   297.79433      169.97777      260.97449      430.95226     -120.33992      3348.0308      1.5622183    
    114000   302.26744      175.24057      264.89453      440.13511      4255.0282      3329.5018      1.5709122    
    115000   290.76984      157.12658      254.81852      411.9451      -8210.7876      3384.9777      1.5451667    
    116000   294.1649       166.29877      257.79381      424.09258     -1310.562       3353.6193      1.559615     
    117000   299.4448       146.04897      262.4209       408.46986     -2107.5152      3349.3096      1.5616218    
    118000   302.29267      154.66872      264.91665      419.58537      3506.8245      3360.2843      1.5565216    
    119000   259.06701      141.03892      227.03549      368.0744       472.45715      3364.7315      1.5544643    
    120000   287.16856      161.92223      251.66251      413.58474     -2605.814       3365.1732      1.5542603    
    121000   283.73542      166.89367      248.65385      415.54752      366.08012      3339.1347      1.5663803    
    122000   304.355        180.34735      266.72398      447.07134      4007.8754      3332.9159      1.569303     
    123000   276.82894      176.94301      242.6013       419.5443       3278.8295      3351.4035      1.5606461    
    124000   331.54353      137.5694       290.55088      428.12028      3501.4717      3319.18        1.5757973    
    125000   305.86538      169.38186      268.04762      437.42948      1193.9966      3325.9979      1.5725671    
    126000   300.75113      151.94568      263.5657       415.51139      118.22576      3345.9089      1.563209     
    127000   294.83205      166.59102      258.37847      424.9695       1758.459       3355.8568      1.5585751    
    128000   300.07116      135.34155      262.96981      398.31136      969.06969      3372.7142      1.5507851    
    129000   324.37111      145.66992      284.26527      429.93519     -604.11936      3343.3698      1.5643962    
    130000   282.11426      171.42143      247.23314      418.65457     -5079.026       3343.3645      1.5643987    
    131000   293.6627       161.64757      257.3537       419.00128      8975.1905      3344.771       1.5637408    
    132000   320.19074      155.35517      280.60177      435.95694     -1511.0692      3335.7595      1.5679652    
    133000   300.00082      143.14834      262.90816      406.0565       218.22417      3372.0633      1.5510844    
    134000   308.68219      173.64435      270.51616      444.16051     -586.37737      3369.3398      1.5523382    
    135000   304.13822      148.65074      266.53401      415.18475     -5535.2726      3377.1956      1.5487273    
    136000   303.50298      159.0694       265.97731      425.04671     -5021.7698      3373.8543      1.5502611    
    137000   305.34727      171.33929      267.59357      438.93286      2613.4339      3328.5322      1.5713698    
    138000   305.65636      139.07608      267.86444      406.94052     -3809.2039      3365.9163      1.5539171    
    139000   313.2101       151.98536      274.48423      426.46959      4098.7453      3375.7036      1.5494118    
    140000   274.34797      143.25894      240.42708      383.68602      3762.9346      3364.0359      1.5547857    
    141000   301.42814      159.12956      264.15901      423.28857     -652.82347      3374.9256      1.549769     
    142000   294.85556      137.02257      258.39907      395.42164     -314.47794      3370.4496      1.5518271    
    143000   293.58996      146.29235      257.28995      403.5823      -3288.8663      3384.9609      1.5451744    
    144000   292.4976       184.00306      256.33266      440.33572      1826.5115      3381.6128      1.5467043    
    145000   284.22158      165.94106      249.0799       415.02096     -4296.7911      3373.9259      1.5502281    
    146000   303.37346      145.5961       265.8638       411.4599       3086.8973      3330.804       1.570298     
    147000   321.41273      156.23819      281.67267      437.91086     -84.879117      3331.3954      1.5700193    
    148000   297.00485      136.50997      260.28262      396.7926      -3295.6976      3358.1819      1.557496     
    149000   309.69605      150.65159      271.40466      422.05625      2108.675       3345.4187      1.563438     
    150000   299.85772      163.68171      262.78276      426.46446      1505.4107      3356.3978      1.5583239    
    151000   313.56465      151.18116      274.79494      425.9761      -397.77162      3351.9591      1.5603875    
    152000   285.90382      161.76748      250.55414      412.32162     -1916.2461      3370.1445      1.5519675    
    153000   299.05962      166.00146      262.08334      428.0848      -1200.299       3342.9789      1.5645791    
    154000   282.02916      142.3809       247.15856      389.53946      742.85647      3336.1032      1.5678037    
    155000   310.00569      151.17691      271.67601      422.85292     -7515.2804      3355.0478      1.5589509    
    156000   293.68964      152.31082      257.37731      409.68813     -1376.6676      3368.33        1.5528036    
    157000   297.33788      139.52334      260.57447      400.09781     -32.144053      3433.9146      1.5231465    
    158000   317.25264      163.38464      278.02694      441.41158     -1146.0753      3412.1974      1.5328407    
    159000   294.4874       144.42095      258.07643      402.49738      1506.0165      3356.6626      1.558201     
    160000   295.62892      163.2305       259.07682      422.30732     -183.33603      3394.0706      1.5410271    
    161000   282.53622      176.91976      247.60292      424.52267      2946.6308      3358.8787      1.5571729    
    162000   322.8134       151.9446       282.90016      434.84476      8732.3072      3384.451       1.5454072    
    163000   289.16637      152.42664      253.41331      405.83995      1333.8827      3421.883       1.528502     
    164000   310.04159      160.98328      271.70747      432.69075     -300.76134      3396.8086      1.539785     
    165000   313.49789      150.73363      274.73643      425.47006      1557.5897      3397.8747      1.5393019    
    166000   279.51293      152.36562      244.95343      397.31905      2295.3421      3348.4972      1.5620007    
    167000   305.95443      154.71119      268.12566      422.83685     -4095.341       3361.7949      1.5558221    
    168000   292.91218      145.35315      256.69598      402.04913      1775.1912      3393.0503      1.5414905    
    169000   295.59834      140.10683      259.05001      399.15684     -5426.7398      3353.6226      1.5596135    
    170000   322.78966      150.14109      282.87935      433.02044      3536.7619      3354.3037      1.5592968    
    171000   309.15104      154.24682      270.92703      425.17385      8472.4332      3336.8793      1.567439     
    172000   302.88926      133.20067      265.43948      398.64014     -2715.7183      3403.6703      1.5366809    
    173000   300.96627      154.01328      263.75424      417.76752      248.10482      3409.4057      1.5340958    
    174000   294.97541      170.26         258.50411      428.76411     -4742.8998      3420.5751      1.5290864    
    175000   324.04608      123.38607      283.98042      407.36649      2276.2975      3390.4097      1.5426911    
    176000   301.56937      166.58891      264.28278      430.87168     -2200.5381      3416.6033      1.530864     
    177000   289.14889      141.87399      253.39799      395.27198      3472.4916      3369.41        1.5523059    
    178000   299.11181      158.85075      262.12907      420.97982      161.58291      3417.1461      1.5306208    
    179000   305.24379      155.43659      267.50288      422.93948      764.13632      3376.3522      1.5491141    
    180000   293.00181      145.51233      256.77453      402.28686      6195.3256      3391.1265      1.542365     
    181000   304.22968      161.98383      266.61416      428.59799     -1357.7187      3455.2853      1.5137259    
    182000   327.67581      136.84739      287.16137      424.00876      6633.1348      3418.3948      1.5300617    
    183000   289.60548      150.30059      253.79812      404.09872     -223.88976      3450.5256      1.515814     
    184000   309.6764       176.13438      271.38744      447.52182     -1797.444       3427.0236      1.5262092    
    185000   311.50157      157.31299      272.98694      430.29994      4662.6159      3421.9154      1.5284875    
    186000   296.88614      133.79445      260.17859      393.97304     -4882.6117      3506.0196      1.4918214    
    187000   320.4729       144.56213      280.84904      425.41117      4674.6783      3430.2231      1.5247856    
    188000   315.08303      160.38879      276.12558      436.51437     -6976.2952      3477.7574      1.5039447    
    189000   299.38031      156.36713      262.36438      418.73151     -5419.2041      3508.764       1.4906545    
    190000   326.29592      149.69062      285.95209      435.64271      2352.4687      3479.5356      1.5031762    
    191000   315.10426      131.4782       276.14418      407.62238     -1087.5821      3475.0636      1.5051105    
    192000   312.79935      158.78034      274.12426      432.9046       4004.3283      3412.4373      1.5327329    
    193000   290.63013      147.02733      254.69609      401.72342     -2017.6497      3475.1682      1.5050653    
    194000   306.46004      181.21909      268.56876      449.78785      3818.9182      3455.2821      1.5137273    
    195000   272.26219      160.53753      238.59919      399.13672     -1746.1922      3486.5331      1.5001592    
    196000   288.21838      135.54293      252.58252      388.12545     -1965.2452      3484.3564      1.5010964    
    197000   308.3119       151.54574      270.19164      421.73738     -2708.7844      3458.4967      1.5123204    
    198000   281.04416      185.44782      246.29534      431.74316     -2816.3373      3509.1921      1.4904727    
    199000   292.40615      147.51966      256.25252      403.77218     -8043.0433      3476.3182      1.5045674    
    200000   312.67978      145.50895      274.01948      419.52843      1172.2721      3477.3588      1.5041171    
    200115   334.49904      136.93166      293.14096      430.07262     -3989.6461      3476.9339      1.5043009    
Loop time of 21.0768 on 1 procs for 100000 steps with 295 atoms

Performance: 409.930 ns/day, 0.059 hours/ns, 4744.562 timesteps/s, 1.400 Matom-step/s
99.7% CPU use with 1 MPI tasks x 1 OpenMP threads

MPI task timing breakdown:
Section |  min time  |  avg time  |  max time  |%varavg| %total
---------------------------------------------------------------
Pair    | 10.93      | 10.93      | 10.93      |   0.0 | 51.86
Bond    | 3.9432     | 3.9432     | 3.9432     |   0.0 | 18.71
Neigh   | 4.4915     | 4.4915     | 4.4915     |   0.0 | 21.31
Comm    | 0.4941     | 0.4941     | 0.4941     |   0.0 |  2.34
Output  | 0.43486    | 0.43486    | 0.43486    |   0.0 |  2.06
Modify  | 0.66073    | 0.66073    | 0.66073    |   0.0 |  3.13
Other   |            | 0.1222     |            |       |  0.58

Nlocal:            295 ave         295 max         295 min
Histogram: 1 0 0 0 0 0 0 0 0 0
Nghost:           1957 ave        1957 max        1957 min
Histogram: 1 0 0 0 0 0 0 0 0 0
Neighs:          17082 ave       17082 max       17082 min
Histogram: 1 0 0 0 0 0 0 0 0 0

Total # of neighbors = 17082
Ave neighs/atom = 57.905085
Ave special neighs/atom = 6.1966102
Neighbor list builds = 2321
Dangerous builds = 0
unfix           npt_relax

# fix nvt_heat    all nvt temp 300 1000 ${thermal_damp}
# run 100000      # 100 picoseconds
# unfix           nvt_heat
#
# fix npt_heat    all npt temp 1000 1000 ${thermal_damp} iso 0 0 ${pressure_damp}
# run 100000      # 100 picoseconds
# unfix           npt_heat
#
# fix cooling_npt all npt temp 1000 300 ${thermal_damp} iso 0 0 ${pressure_damp}
# run 700000      # 700 picoseconds
# unfix           cooling_npt
#
# fix npt_final   all npt temp 300 300 ${thermal_damp} iso 0 0 100
# run 100000      # 100 picoseconds
# unfix           npt_final

# density computation
variable rho equal density
fix integrate  all npt temp ${temp} ${temp} ${thermal_damp} iso 0 0 ${pressure_damp}
fix integrate  all npt temp 300 ${temp} ${thermal_damp} iso 0 0 ${pressure_damp}
fix integrate  all npt temp 300 300 ${thermal_damp} iso 0 0 ${pressure_damp}
fix integrate  all npt temp 300 300 100.0 iso 0 0 ${pressure_damp}
fix integrate  all npt temp 300 300 100.0 iso 0 0 500.0
fix rho50k all ave/time 10 5000 50000 v_rho mode scalar ave one
run 50000
Generated 6 of 6 mixed pair_coeff terms from arithmetic mixing rule
WARNING: Inconsistent image flags
For more information see https://docs.lammps.org/err0027 (src/domain.cpp:1052)
Per MPI rank memory allocation (min/avg/max) = 17.45 | 17.45 | 17.45 Mbytes
   Step          Temp          PotEng         KinEng         TotEng         Press          Volume        Density    
    200115   334.49904      136.93166      293.14096      430.07262     -3989.6461      3476.9339      1.5043009    
    201000   289.73961      139.1032       253.91567      393.01887      4089.5453      3481.7092      1.5022377    
    202000   292.45336      129.03783      256.29389      385.33172      722.76786      3462.4608      1.5105889    
    203000   323.5692       134.50973      283.56251      418.07224     -1776.6011      3465.5552      1.5092401    
    204000   274.87121      137.96375      240.88563      378.84938      840.59223      3437.4826      1.5215655    
    205000   284.85896      163.39963      249.63847      413.0381      -3532.2955      3459.6498      1.5118163    
    206000   294.68396      134.98509      258.24869      393.23379      1043.3908      3443.6582      1.5188368    
    207000   314.95623      127.38547      276.01446      403.39993     -1467.0644      3408.4971      1.5345047    
    208000   279.28209      155.44924      244.75114      400.20038      5652.647       3429.1466      1.5252643    
    209000   287.83333      145.79843      252.24509      398.04351      3920.9831      3445.2806      1.5181216    
    210000   280.0103       152.66345      245.38931      398.05276      7116.4335      3434.0189      1.5231002    
    211000   297.55768      127.06327      260.7671       387.83036      2759.1172      3456.7321      1.5130924    
    212000   295.10031      138.9871       258.61356      397.60067      2069.684       3505.4673      1.4920564    
    213000   308.21626      127.6472       270.10783      397.75503      1650.2468      3461.2334      1.5111246    
    214000   306.29358      155.14014      268.42288      423.56302     -473.8588       3470.0223      1.5072972    
    215000   285.34883      151.96101      250.06778      402.02879     -2958.7906      3468.0481      1.5081553    
    216000   294.94906      183.80826      258.48101      442.28927     -1672.2683      3552.0747      1.4724789    
    217000   280.27378      152.15314      245.62022      397.77336     -4920.0766      3444.5639      1.5184375    
    218000   275.13663      134.28019      241.11823      375.39842      3616.3236      3476.1848      1.5046251    
    219000   306.0183       147.9747       268.18163      416.15633     -2737.1371      3492.8388      1.497451     
    220000   279.84617      125.93806      245.24547      371.18353      191.08091      3445.6496      1.517959     
    221000   289.44266      147.66384      253.65543      401.31928     -1412.7102      3439.9777      1.5204619    
    222000   305.26489      159.9498       267.52138      427.47118     -404.23652      3469.8433      1.507375     
    223000   315.08324      156.64723      276.12577      432.773        7366.9723      3431.5656      1.5241891    
    224000   307.40642      149.55742      269.39812      418.95554     -738.51248      3495.2782      1.4964059    
    225000   289.3271       135.94883      253.55416      389.50299      222.19655      3504.6233      1.4924157    
    226000   303.8535       147.16596      266.28449      413.45045     -5188.0722      3491.0837      1.4982038    
    227000   282.5671       154.93242      247.62998      402.5624       4428.0936      3436.5521      1.5219775    
    228000   317.01188      124.20202      277.81595      402.01797      622.77714      3454.74        1.5139649    
    229000   285.45549      135.26249      250.16125      385.42374     -271.79183      3477.4982      1.5040568    
    230000   295.33305      127.30976      258.81753      386.12729     -2440.8339      3471.0165      1.5068655    
    231000   315.57188      138.74448      276.55399      415.29847      2221.4125      3464.4101      1.509739     
    232000   294.34803      143.66464      257.9543       401.61893      975.17446      3449.967       1.5160594    
    233000   286.84859      154.39512      251.3821       405.77723      5523.9281      3444.0351      1.5186706    
    234000   286.63306      166.93253      251.19322      418.12575      2732.7253      3431.775       1.5240961    
    235000   286.50039      136.04443      251.07695      387.12138      1312.7098      3446.4007      1.5176282    
    236000   310.17851      149.59118      271.82747      421.41865     -3029.7073      3485.6855      1.500524     
    237000   284.31045      133.21935      249.15778      382.37713     -8660.9152      3467.6914      1.5083104    
    238000   285.96292      142.2724       250.60594      392.87834     -1311.8966      3465.7393      1.50916      
    239000   278.9866       158.69272      244.49218      403.1849      -4645.3911      3462.6873      1.5104901    
    240000   307.01842      137.65779      269.0581       406.71589      5.3883204      3482.7721      1.5017793    
    241000   305.61739      146.29094      267.83029      414.12123     -5730.6702      3472.2627      1.5063247    
    242000   296.65974      132.65205      259.98018      392.63223      6660.4833      3471.6193      1.5066038    
    243000   301.46549      150.08518      264.19174      414.27692     -3656.7704      3464.4968      1.5097012    
    244000   287.04667      143.18544      251.55569      394.74113     -4374.6165      3448.6465      1.5166399    
    245000   311.40538      141.96721      272.90264      414.86985      5287.8849      3451.0767      1.5155719    
    246000   329.08689      163.03395      288.39798      451.43193      4576.3033      3452.0184      1.5151585    
    247000   296.66284      127.70456      259.9829       387.68746      1783.1735      3436.1348      1.5221623    
    248000   311.28009      148.05099      272.79284      420.84383     -6552.623       3510.2627      1.4900181    
    249000   285.6193       148.15638      250.30481      398.46119     -3773.7593      3481.4671      1.5023422    
    250000   304.87782      151.06987      267.18217      418.25203      1462.2727      3455.0964      1.5138087    
    250115   311.28685      146.32365      272.79877      419.12242     -3812.8448      3514.8353      1.4880796    
Loop time of 10.1884 on 1 procs for 50000 steps with 295 atoms

Performance: 424.010 ns/day, 0.057 hours/ns, 4907.521 timesteps/s, 1.448 Matom-step/s
99.6% CPU use with 1 MPI tasks x 1 OpenMP threads

MPI task timing breakdown:
Section |  min time  |  avg time  |  max time  |%varavg| %total
---------------------------------------------------------------
Pair    | 5.2483     | 5.2483     | 5.2483     |   0.0 | 51.51
Bond    | 1.9424     | 1.9424     | 1.9424     |   0.0 | 19.06
Neigh   | 2.1251     | 2.1251     | 2.1251     |   0.0 | 20.86
Comm    | 0.24153    | 0.24153    | 0.24153    |   0.0 |  2.37
Output  | 0.22764    | 0.22764    | 0.22764    |   0.0 |  2.23
Modify  | 0.34114    | 0.34114    | 0.34114    |   0.0 |  3.35
Other   |            | 0.06231    |            |       |  0.61

Nlocal:            295 ave         295 max         295 min
Histogram: 1 0 0 0 0 0 0 0 0 0
Nghost:           1993 ave        1993 max        1993 min
Histogram: 1 0 0 0 0 0 0 0 0 0
Neighs:          16856 ave       16856 max       16856 min
Histogram: 1 0 0 0 0 0 0 0 0 0

Total # of neighbors = 16856
Ave neighs/atom = 57.138983
Ave special neighs/atom = 6.1966102
Neighbor list builds = 1115
Dangerous builds = 0
unfix integrate
unfix rho50k

# Compute initial state
fix 3 all box/relax  aniso 0.0
minimize ${etol} ${ftol} ${maxiter} ${maxeval}
minimize 0 ${ftol} ${maxiter} ${maxeval}
minimize 0 1e-10 ${maxiter} ${maxeval}
minimize 0 1e-10 100000 ${maxeval}
minimize 0 1e-10 100000 100000
Generated 6 of 6 mixed pair_coeff terms from arithmetic mixing rule
WARNING: Energy due to 3 extra global DOFs will be included in minimizer energies
 (src/min.cpp:222)
WARNING: Inconsistent image flags
For more information see https://docs.lammps.org/err0027 (src/domain.cpp:1052)
Per MPI rank memory allocation (min/avg/max) = 18.56 | 18.56 | 18.56 Mbytes
   Step          Temp          PotEng         KinEng         TotEng         Press          Volume        Density    
    250115   311.28685      146.32365      272.79877      419.12242     -3812.8448      3514.8353      1.4880796    
    250315   311.28685     -40.004636      272.79877      232.79413      3261.0856      3485.2346      1.5007182    
Loop time of 0.0383245 on 1 procs for 200 steps with 295 atoms

100.0% CPU use with 1 MPI tasks x 1 OpenMP threads

Minimization stats:
  Stopping criterion = linesearch alpha is zero
  Energy initial, next-to-last, final = 
      146.323652857471  -40.0046359228066  -40.0046359228066
  Force two-norm initial, final = 915.55926 111.30022
  Force max component initial, final = 562.55112 17.013143
  Final line search alpha, max atom move = 7.0484616e-13 1.1991648e-11
  Iterations, force evaluations = 200 227

MPI task timing breakdown:
Section |  min time  |  avg time  |  max time  |%varavg| %total
---------------------------------------------------------------
Pair    | 0.023617   | 0.023617   | 0.023617   |   0.0 | 61.62
Bond    | 0.0080652  | 0.0080652  | 0.0080652  |   0.0 | 21.04
Neigh   | 0          | 0          | 0          |   0.0 |  0.00
Comm    | 0.00082845 | 0.00082845 | 0.00082845 |   0.0 |  2.16
Output  | 0.00070118 | 0.00070118 | 0.00070118 |   0.0 |  1.83
Modify  | 0          | 0          | 0          |   0.0 |  0.00
Other   |            | 0.005113   |            |       | 13.34

Nlocal:            295 ave         295 max         295 min
Histogram: 1 0 0 0 0 0 0 0 0 0
Nghost:           1967 ave        1967 max        1967 min
Histogram: 1 0 0 0 0 0 0 0 0 0
Neighs:          16773 ave       16773 max       16773 min
Histogram: 1 0 0 0 0 0 0 0 0 0

Total # of neighbors = 16773
Ave neighs/atom = 56.857627
Ave special neighs/atom = 6.1966102
Neighbor list builds = 0
Dangerous builds = 0

variable tmp equal pxx
variable pxx0 equal ${tmp}
variable pxx0 equal 3178.33653635762
variable tmp equal pyy
variable pyy0 equal ${tmp}
variable pyy0 equal 3273.58430069716
variable tmp equal pzz
variable pzz0 equal ${tmp}
variable pzz0 equal 3331.33599212639
variable tmp equal pyz
variable pyz0 equal ${tmp}
variable pyz0 equal 744.636112941383
variable tmp equal pxz
variable pxz0 equal ${tmp}
variable pxz0 equal 838.412647066323
variable tmp equal pxy
variable pxy0 equal ${tmp}
variable pxy0 equal 4856.36229277997

variable tmp equal lx
variable lx0 equal ${tmp}
variable lx0 equal 15.4297291532954
variable tmp equal ly
variable ly0 equal ${tmp}
variable ly0 equal 13.3609795753377
variable tmp equal lz
variable lz0 equal ${tmp}
variable lz0 equal 16.9057879317147

# These formulas define the derivatives w.r.t. strain components
# Constants uses $, variables use v_
variable d1 equal -(v_pxx1-${pxx0})/(v_delta/v_len0)*${cfac}
variable d1 equal -(v_pxx1-3178.33653635762)/(v_delta/v_len0)*${cfac}
variable d1 equal -(v_pxx1-3178.33653635762)/(v_delta/v_len0)*0.0001
variable d2 equal -(v_pyy1-${pyy0})/(v_delta/v_len0)*${cfac}
variable d2 equal -(v_pyy1-3273.58430069716)/(v_delta/v_len0)*${cfac}
variable d2 equal -(v_pyy1-3273.58430069716)/(v_delta/v_len0)*0.0001
variable d3 equal -(v_pzz1-${pzz0})/(v_delta/v_len0)*${cfac}
variable d3 equal -(v_pzz1-3331.33599212639)/(v_delta/v_len0)*${cfac}
variable d3 equal -(v_pzz1-3331.33599212639)/(v_delta/v_len0)*0.0001
variable d4 equal -(v_pyz1-${pyz0})/(v_delta/v_len0)*${cfac}
variable d4 equal -(v_pyz1-744.636112941383)/(v_delta/v_len0)*${cfac}
variable d4 equal -(v_pyz1-744.636112941383)/(v_delta/v_len0)*0.0001
variable d5 equal -(v_pxz1-${pxz0})/(v_delta/v_len0)*${cfac}
variable d5 equal -(v_pxz1-838.412647066323)/(v_delta/v_len0)*${cfac}
variable d5 equal -(v_pxz1-838.412647066323)/(v_delta/v_len0)*0.0001
variable d6 equal -(v_pxy1-${pxy0})/(v_delta/v_len0)*${cfac}
variable d6 equal -(v_pxy1-4856.36229277997)/(v_delta/v_len0)*${cfac}
variable d6 equal -(v_pxy1-4856.36229277997)/(v_delta/v_len0)*0.0001

# displace_atoms all random ${atomjiggle} ${atomjiggle} ${atomjiggle} 87287 units box

# Write restart
unfix 3
write_restart restart_333-EXP-27-vasp.equil
System init for write_restart ...
Generated 6 of 6 mixed pair_coeff terms from arithmetic mixing rule

# uxx Perturbation

variable dir equal 1
include ./input/displace_333-EXP-27-vasp.mod
if "${dir} == 1" then    "variable len0 equal ${lx0}"
variable len0 equal ${lx0}
variable len0 equal 15.4297291532954
if "${dir} == 2" then    "variable len0 equal ${ly0}"
if "${dir} == 3" then    "variable len0 equal ${lz0}"
if "${dir} == 4" then    "variable len0 equal ${lz0}"
if "${dir} == 5" then    "variable len0 equal ${lz0}"
if "${dir} == 6" then    "variable len0 equal ${ly0}"

# Reset box and simulation parameters

clear
OMP_NUM_THREADS environment is not set. Defaulting to 1 thread.
  using 1 OpenMP thread(s) per MPI task
box tilt large

The 'box' command has been removed and will be ignored

read_restart restart_333-EXP-27-vasp.equil
Reading restart file ...
  restart file = 10 Sep 2025, LAMMPS = 10 Sep 2025
  restoring atom style full from restart
  triclinic box = (-0.14250308 -0.16633729 -0.20388747) to (15.287226 13.194642 16.7019) with tilt (-7.8939615 -0.65236226 0.5948275)
WARNING: Triclinic box skew is large. LAMMPS will run inefficiently. (src/domain.cpp:221)
  1 by 1 by 1 MPI processor grid
  restoring pair style lj/cut from restart
  restoring bond style harmonic from restart
  restoring angle style hybrid from restart
  restoring dihedral style harmonic from restart
  295 atoms
  315 bonds
  599 angles
  759 dihedrals
Finding 1-2 1-3 1-4 neighbors ...
  special bond factors lj:    0        0        1       
  special bond factors coul:  0        0        1       
     4 = max # of 1-2 neighbors
     8 = max # of 1-3 neighbors
    12 = max # of special neighbors
  special bonds CPU = 0.000 seconds
  read_restart CPU = 0.002 seconds
include ./input/angles_333-EXP-27-vasp.mod
angle_style hybrid fourier cosine/periodic
angle_coeff 1 fourier 157.882480        0.343737        0.374972        0.281246
angle_coeff 2 fourier 221.735285        0.343737        0.374972        0.281246
angle_coeff 3 fourier 83.380072        0.343737        0.374972        0.281246
angle_coeff 4 fourier 58.020602        0.343737        0.374972        0.281246
angle_coeff 5 fourier 114.246973        0.343737        0.374972        0.281246
angle_coeff 6 fourier 32.417871        0.343737        0.374972        0.281246
angle_coeff 7 fourier 90.420412        0.343737        0.374972        0.281246
angle_coeff 8 fourier 75.498766        0.343737        0.374972        0.281246
angle_coeff 9 cosine/periodic 88.853997              -1               3

# Negative deformation

variable delta equal -${up}*${len0}
variable delta equal -0.02*${len0}
variable delta equal -0.02*15.4297291532954
variable deltaxy equal -${up}*xy
variable deltaxy equal -0.02*xy
variable deltaxz equal -${up}*xz
variable deltaxz equal -0.02*xz
variable deltayz equal -${up}*yz
variable deltayz equal -0.02*yz
if "${dir} == 1" then    "change_box all x delta 0 ${delta} xy delta ${deltaxy} xz delta ${deltaxz} remap units box"
change_box all x delta 0 ${delta} xy delta ${deltaxy} xz delta ${deltaxz} remap units box
change_box all x delta 0 -0.308594583065908 xy delta ${deltaxy} xz delta ${deltaxz} remap units box
change_box all x delta 0 -0.308594583065908 xy delta 0.157879229559021 xz delta ${deltaxz} remap units box
change_box all x delta 0 -0.308594583065908 xy delta 0.157879229559021 xz delta 0.0130472452089884 remap units box
Changing box ...
WARNING: Triclinic box skew is large. LAMMPS will run inefficiently. (src/domain.cpp:221)
  triclinic box = (-0.14250308 -0.16633729 -0.20388747) to (14.978631 13.194642 16.7019) with tilt (-7.8939615 -0.65236226 0.5948275)
WARNING: Triclinic box skew is large. LAMMPS will run inefficiently. (src/domain.cpp:221)
  triclinic box = (-0.14250308 -0.16633729 -0.20388747) to (14.978631 13.194642 16.7019) with tilt (-7.7360822 -0.65236226 0.5948275)
WARNING: Triclinic box skew is large. LAMMPS will run inefficiently. (src/domain.cpp:221)
  triclinic box = (-0.14250308 -0.16633729 -0.20388747) to (14.978631 13.194642 16.7019) with tilt (-7.7360822 -0.63931502 0.5948275)
if "${dir} == 2" then    "change_box all y delta 0 ${delta} yz delta ${deltayz} remap units box"
if "${dir} == 3" then    "change_box all z delta 0 ${delta} remap units box"
if "${dir} == 4" then    "change_box all yz delta ${delta} remap units box"
if "${dir} == 5" then    "change_box all xz delta ${delta} remap units box"
if "${dir} == 6" then    "change_box all xy delta ${delta} remap units box"

# Relax atoms positions

minimize ${etol} ${ftol} ${maxiter} ${maxeval}
minimize 0 ${ftol} ${maxiter} ${maxeval}
minimize 0 1e-10 ${maxiter} ${maxeval}
minimize 0 1e-10 100000 ${maxeval}
minimize 0 1e-10 100000 100000
Generated 6 of 6 mixed pair_coeff terms from arithmetic mixing rule
Neighbor list info ...
  update: every = 1 steps, delay = 0 steps, check = yes
  max neighbors/atom: 2000, page size: 100000
  master list distance cutoff = 7
  ghost atom cutoff = 7
  binsize = 3.5, bins = 7 4 5
  1 neighbor lists, perpetual/occasional/extra = 1 0 0
  (1) pair lj/cut, perpetual
      attributes: half, newton on
      pair build: half/bin/newton/tri
      stencil: half/bin/3d/tri
      bin: standard
WARNING: Inconsistent image flags
For more information see https://docs.lammps.org/err0027 (src/domain.cpp:1052)
Per MPI rank memory allocation (min/avg/max) = 17.49 | 17.49 | 17.49 Mbytes
   Step          Temp          E_pair         E_mol          TotEng         Press     
    250315   311.28685     -359.51327      342.89074      256.17624      26518.902    
    250351   311.28685     -380.99115      258.72132      150.52894      4669.9993    
Loop time of 0.018602 on 1 procs for 36 steps with 295 atoms

100.0% CPU use with 1 MPI tasks x 1 OpenMP threads

Minimization stats:
  Stopping criterion = linesearch alpha is zero
  Energy initial, next-to-last, final = 
     -16.6225314773334  -122.269827703204  -122.269827703204
  Force two-norm initial, final = 198.12707 17.1338
  Force max component initial, final = 22.632649 2.2191953
  Final line search alpha, max atom move = 3.7479004e-11 8.3173231e-11
  Iterations, force evaluations = 36 127

MPI task timing breakdown:
Section |  min time  |  avg time  |  max time  |%varavg| %total
---------------------------------------------------------------
Pair    | 0.013724   | 0.013724   | 0.013724   |   0.0 | 73.78
Bond    | 0.0039651  | 0.0039651  | 0.0039651  |   0.0 | 21.32
Neigh   | 0          | 0          | 0          |   0.0 |  0.00
Comm    | 0.00052136 | 0.00052136 | 0.00052136 |   0.0 |  2.80
Output  | 0          | 0          | 0          |   0.0 |  0.00
Modify  | 0          | 0          | 0          |   0.0 |  0.00
Other   |            | 0.0003915  |            |       |  2.10

Nlocal:            295 ave         295 max         295 min
Histogram: 1 0 0 0 0 0 0 0 0 0
Nghost:           2009 ave        2009 max        2009 min
Histogram: 1 0 0 0 0 0 0 0 0 0
Neighs:          17294 ave       17294 max       17294 min
Histogram: 1 0 0 0 0 0 0 0 0 0

Total # of neighbors = 17294
Ave neighs/atom = 58.623729
Ave special neighs/atom = 6.1966102
Neighbor list builds = 0
Dangerous builds = 0

# Obtain new stress tensor

variable tmp equal pxx
variable pxx1 equal ${tmp}
variable pxx1 equal 4942.59277614013
variable tmp equal pyy
variable pyy1 equal ${tmp}
variable pyy1 equal 4485.43787984036
variable tmp equal pzz
variable pzz1 equal ${tmp}
variable pzz1 equal 4581.96738441407
variable tmp equal pxy
variable pxy1 equal ${tmp}
variable pxy1 equal 2106.37696521135
variable tmp equal pxz
variable pxz1 equal ${tmp}
variable pxz1 equal 3183.00981685278
variable tmp equal pyz
variable pyz1 equal ${tmp}
variable pyz1 equal 4386.2144450071

# Compute elastic constant from pressure tensor

variable C1neg equal ${d1}
variable C1neg equal 8.82128119891255
variable C2neg equal ${d2}
variable C2neg equal 6.059267895716
variable C3neg equal ${d3}
variable C3neg equal 6.2531569614384
variable C4neg equal ${d4}
variable C4neg equal 18.2078916603286
variable C5neg equal ${d5}
variable C5neg equal 11.7229858489323
variable C6neg equal ${d6}
variable C6neg equal -13.7499266378431

# Reset box and simulation parameters

clear
OMP_NUM_THREADS environment is not set. Defaulting to 1 thread.
  using 1 OpenMP thread(s) per MPI task
box tilt large

The 'box' command has been removed and will be ignored

read_restart restart_333-EXP-27-vasp.equil
Reading restart file ...
  restart file = 10 Sep 2025, LAMMPS = 10 Sep 2025
  restoring atom style full from restart
  triclinic box = (-0.14250308 -0.16633729 -0.20388747) to (15.287226 13.194642 16.7019) with tilt (-7.8939615 -0.65236226 0.5948275)
WARNING: Triclinic box skew is large. LAMMPS will run inefficiently. (src/domain.cpp:221)
  1 by 1 by 1 MPI processor grid
  restoring pair style lj/cut from restart
  restoring bond style harmonic from restart
  restoring angle style hybrid from restart
  restoring dihedral style harmonic from restart
  295 atoms
  315 bonds
  599 angles
  759 dihedrals
Finding 1-2 1-3 1-4 neighbors ...
  special bond factors lj:    0        0        1       
  special bond factors coul:  0        0        1       
     4 = max # of 1-2 neighbors
     8 = max # of 1-3 neighbors
    12 = max # of special neighbors
  special bonds CPU = 0.000 seconds
  read_restart CPU = 0.002 seconds
include ./input/angles_333-EXP-27-vasp.mod
angle_style hybrid fourier cosine/periodic
angle_coeff 1 fourier 157.882480        0.343737        0.374972        0.281246
angle_coeff 2 fourier 221.735285        0.343737        0.374972        0.281246
angle_coeff 3 fourier 83.380072        0.343737        0.374972        0.281246
angle_coeff 4 fourier 58.020602        0.343737        0.374972        0.281246
angle_coeff 5 fourier 114.246973        0.343737        0.374972        0.281246
angle_coeff 6 fourier 32.417871        0.343737        0.374972        0.281246
angle_coeff 7 fourier 90.420412        0.343737        0.374972        0.281246
angle_coeff 8 fourier 75.498766        0.343737        0.374972        0.281246
angle_coeff 9 cosine/periodic 88.853997              -1               3

# Positive deformation

variable delta equal ${up}*${len0}
variable delta equal 0.02*${len0}
variable delta equal 0.02*15.4297291532954
variable deltaxy equal ${up}*xy
variable deltaxy equal 0.02*xy
variable deltaxz equal ${up}*xz
variable deltaxz equal 0.02*xz
variable deltayz equal ${up}*yz
variable deltayz equal 0.02*yz
if "${dir} == 1" then    "change_box all x delta 0 ${delta} xy delta ${deltaxy} xz delta ${deltaxz} remap units box"
change_box all x delta 0 ${delta} xy delta ${deltaxy} xz delta ${deltaxz} remap units box
change_box all x delta 0 0.308594583065908 xy delta ${deltaxy} xz delta ${deltaxz} remap units box
change_box all x delta 0 0.308594583065908 xy delta -0.157879229559021 xz delta ${deltaxz} remap units box
change_box all x delta 0 0.308594583065908 xy delta -0.157879229559021 xz delta -0.0130472452089884 remap units box
Changing box ...
WARNING: Triclinic box skew is large. LAMMPS will run inefficiently. (src/domain.cpp:221)
  triclinic box = (-0.14250308 -0.16633729 -0.20388747) to (15.595821 13.194642 16.7019) with tilt (-7.8939615 -0.65236226 0.5948275)
WARNING: Triclinic box skew is large. LAMMPS will run inefficiently. (src/domain.cpp:221)
  triclinic box = (-0.14250308 -0.16633729 -0.20388747) to (15.595821 13.194642 16.7019) with tilt (-8.0518407 -0.65236226 0.5948275)
WARNING: Triclinic box skew is large. LAMMPS will run inefficiently. (src/domain.cpp:221)
  triclinic box = (-0.14250308 -0.16633729 -0.20388747) to (15.595821 13.194642 16.7019) with tilt (-8.0518407 -0.66540951 0.5948275)
if "${dir} == 2" then    "change_box all y delta 0 ${delta} yz delta ${deltayz} remap units box"
if "${dir} == 3" then    "change_box all z delta 0 ${delta} remap units box"
if "${dir} == 4" then    "change_box all yz delta ${delta} remap units box"
if "${dir} == 5" then    "change_box all xz delta ${delta} remap units box"
if "${dir} == 6" then    "change_box all xy delta ${delta} remap units box"

# Relax atoms positions

minimize ${etol} ${ftol} ${maxiter} ${maxeval}
minimize 0 ${ftol} ${maxiter} ${maxeval}
minimize 0 1e-10 ${maxiter} ${maxeval}
minimize 0 1e-10 100000 ${maxeval}
minimize 0 1e-10 100000 100000
Generated 6 of 6 mixed pair_coeff terms from arithmetic mixing rule
Neighbor list info ...
  update: every = 1 steps, delay = 0 steps, check = yes
  max neighbors/atom: 2000, page size: 100000
  master list distance cutoff = 7
  ghost atom cutoff = 7
  binsize = 3.5, bins = 7 4 5
  1 neighbor lists, perpetual/occasional/extra = 1 0 0
  (1) pair lj/cut, perpetual
      attributes: half, newton on
      pair build: half/bin/newton/tri
      stencil: half/bin/3d/tri
      bin: standard
WARNING: Inconsistent image flags
For more information see https://docs.lammps.org/err0027 (src/domain.cpp:1052)
Per MPI rank memory allocation (min/avg/max) = 17.49 | 17.49 | 17.49 Mbytes
   Step          Temp          E_pair         E_mol          TotEng         Press     
    250315   311.28685     -375.1564       359.16797      256.81035     -19368.071    
    250352   311.28685     -388.50276      278.58328      162.87929     -4954.5537    
Loop time of 0.0189256 on 1 procs for 37 steps with 295 atoms

100.0% CPU use with 1 MPI tasks x 1 OpenMP threads

Minimization stats:
  Stopping criterion = linesearch alpha is zero
  Energy initial, next-to-last, final = 
     -15.9884220315721  -109.919478033045  -109.919478033045
  Force two-norm initial, final = 184.30345 17.867893
  Force max component initial, final = 23.600851 2.8726242
  Final line search alpha, max atom move = 2.2048109e-11 6.3335932e-11
  Iterations, force evaluations = 37 130

MPI task timing breakdown:
Section |  min time  |  avg time  |  max time  |%varavg| %total
---------------------------------------------------------------
Pair    | 0.013875   | 0.013875   | 0.013875   |   0.0 | 73.32
Bond    | 0.0041456  | 0.0041456  | 0.0041456  |   0.0 | 21.90
Neigh   | 0          | 0          | 0          |   0.0 |  0.00
Comm    | 0.00052762 | 0.00052762 | 0.00052762 |   0.0 |  2.79
Output  | 0          | 0          | 0          |   0.0 |  0.00
Modify  | 0          | 0          | 0          |   0.0 |  0.00
Other   |            | 0.0003769  |            |       |  1.99

Nlocal:            295 ave         295 max         295 min
Histogram: 1 0 0 0 0 0 0 0 0 0
Nghost:           1955 ave        1955 max        1955 min
Histogram: 1 0 0 0 0 0 0 0 0 0
Neighs:          16589 ave       16589 max       16589 min
Histogram: 1 0 0 0 0 0 0 0 0 0

Total # of neighbors = 16589
Ave neighs/atom = 56.233898
Ave special neighs/atom = 6.1966102
Neighbor list builds = 0
Dangerous builds = 0

# Obtain new stress tensor

variable tmp equal pe
variable e1 equal ${tmp}
variable e1 equal -109.919478033045
variable tmp equal press
variable p1 equal ${tmp}
variable p1 equal -4954.55367976269
variable tmp equal pxx
variable pxx1 equal ${tmp}
variable pxx1 equal -11580.7653038259
variable tmp equal pyy
variable pyy1 equal ${tmp}
variable pyy1 equal -874.126000885984
variable tmp equal pzz
variable pzz1 equal ${tmp}
variable pzz1 equal -2408.76973457617
variable tmp equal pxy
variable pxy1 equal ${tmp}
variable pxy1 equal 3408.95402572916
variable tmp equal pxz
variable pxz1 equal ${tmp}
variable pxz1 equal 2700.35709249455
variable tmp equal pyz
variable pyz1 equal ${tmp}
variable pyz1 equal 2607.88779363035

# Compute elastic constant from pressure tensor

variable C1pos equal ${d1}
variable C1pos equal 73.7955092009176
variable C2pos equal ${d2}
variable C2pos equal 20.7385515079157
variable C3pos equal ${d3}
variable C3pos equal 28.7005286335128
variable C4pos equal ${d4}
variable C4pos equal -9.31625840344484
variable C5pos equal ${d5}
variable C5pos equal -9.30972222714114
variable C6pos equal ${d6}
variable C6pos equal 7.23704133525405

# Combine positive and negative

variable C1${dir} equal 0.5*(${C1neg}+${C1pos})
variable C11 equal 0.5*(${C1neg}+${C1pos})
variable C11 equal 0.5*(8.82128119891255+${C1pos})
variable C11 equal 0.5*(8.82128119891255+73.7955092009176)
variable C2${dir} equal 0.5*(${C2neg}+${C2pos})
variable C21 equal 0.5*(${C2neg}+${C2pos})
variable C21 equal 0.5*(6.059267895716+${C2pos})
variable C21 equal 0.5*(6.059267895716+20.7385515079157)
variable C3${dir} equal 0.5*(${C3neg}+${C3pos})
variable C31 equal 0.5*(${C3neg}+${C3pos})
variable C31 equal 0.5*(6.2531569614384+${C3pos})
variable C31 equal 0.5*(6.2531569614384+28.7005286335128)
variable C4${dir} equal 0.5*(${C4neg}+${C4pos})
variable C41 equal 0.5*(${C4neg}+${C4pos})
variable C41 equal 0.5*(18.2078916603286+${C4pos})
variable C41 equal 0.5*(18.2078916603286+-9.31625840344484)
variable C5${dir} equal 0.5*(${C5neg}+${C5pos})
variable C51 equal 0.5*(${C5neg}+${C5pos})
variable C51 equal 0.5*(11.7229858489323+${C5pos})
variable C51 equal 0.5*(11.7229858489323+-9.30972222714114)
variable C6${dir} equal 0.5*(${C6neg}+${C6pos})
variable C61 equal 0.5*(${C6neg}+${C6pos})
variable C61 equal 0.5*(-13.7499266378431+${C6pos})
variable C61 equal 0.5*(-13.7499266378431+7.23704133525405)

# Delete dir to make sure it is not reused

variable dir delete

# uyy Perturbation

variable dir equal 2
include ./input/displace_333-EXP-27-vasp.mod
if "${dir} == 1" then    "variable len0 equal ${lx0}"
if "${dir} == 2" then    "variable len0 equal ${ly0}"
variable len0 equal ${ly0}
variable len0 equal 13.3609795753377
if "${dir} == 3" then    "variable len0 equal ${lz0}"
if "${dir} == 4" then    "variable len0 equal ${lz0}"
if "${dir} == 5" then    "variable len0 equal ${lz0}"
if "${dir} == 6" then    "variable len0 equal ${ly0}"

# Reset box and simulation parameters

clear
OMP_NUM_THREADS environment is not set. Defaulting to 1 thread.
  using 1 OpenMP thread(s) per MPI task
box tilt large

The 'box' command has been removed and will be ignored

read_restart restart_333-EXP-27-vasp.equil
Reading restart file ...
  restart file = 10 Sep 2025, LAMMPS = 10 Sep 2025
  restoring atom style full from restart
  triclinic box = (-0.14250308 -0.16633729 -0.20388747) to (15.287226 13.194642 16.7019) with tilt (-7.8939615 -0.65236226 0.5948275)
WARNING: Triclinic box skew is large. LAMMPS will run inefficiently. (src/domain.cpp:221)
  1 by 1 by 1 MPI processor grid
  restoring pair style lj/cut from restart
  restoring bond style harmonic from restart
  restoring angle style hybrid from restart
  restoring dihedral style harmonic from restart
  295 atoms
  315 bonds
  599 angles
  759 dihedrals
Finding 1-2 1-3 1-4 neighbors ...
  special bond factors lj:    0        0        1       
  special bond factors coul:  0        0        1       
     4 = max # of 1-2 neighbors
     8 = max # of 1-3 neighbors
    12 = max # of special neighbors
  special bonds CPU = 0.000 seconds
  read_restart CPU = 0.001 seconds
include ./input/angles_333-EXP-27-vasp.mod
angle_style hybrid fourier cosine/periodic
angle_coeff 1 fourier 157.882480        0.343737        0.374972        0.281246
angle_coeff 2 fourier 221.735285        0.343737        0.374972        0.281246
angle_coeff 3 fourier 83.380072        0.343737        0.374972        0.281246
angle_coeff 4 fourier 58.020602        0.343737        0.374972        0.281246
angle_coeff 5 fourier 114.246973        0.343737        0.374972        0.281246
angle_coeff 6 fourier 32.417871        0.343737        0.374972        0.281246
angle_coeff 7 fourier 90.420412        0.343737        0.374972        0.281246
angle_coeff 8 fourier 75.498766        0.343737        0.374972        0.281246
angle_coeff 9 cosine/periodic 88.853997              -1               3

# Negative deformation

variable delta equal -${up}*${len0}
variable delta equal -0.02*${len0}
variable delta equal -0.02*13.3609795753377
variable deltaxy equal -${up}*xy
variable deltaxy equal -0.02*xy
variable deltaxz equal -${up}*xz
variable deltaxz equal -0.02*xz
variable deltayz equal -${up}*yz
variable deltayz equal -0.02*yz
if "${dir} == 1" then    "change_box all x delta 0 ${delta} xy delta ${deltaxy} xz delta ${deltaxz} remap units box"
if "${dir} == 2" then    "change_box all y delta 0 ${delta} yz delta ${deltayz} remap units box"
change_box all y delta 0 ${delta} yz delta ${deltayz} remap units box
change_box all y delta 0 -0.267219591506754 yz delta ${deltayz} remap units box
change_box all y delta 0 -0.267219591506754 yz delta -0.0118965499404107 remap units box
Changing box ...
WARNING: Triclinic box skew is large. LAMMPS will run inefficiently. (src/domain.cpp:221)
  triclinic box = (-0.14250308 -0.16633729 -0.20388747) to (15.287226 12.927423 16.7019) with tilt (-7.8939615 -0.65236226 0.5948275)
WARNING: Triclinic box skew is large. LAMMPS will run inefficiently. (src/domain.cpp:221)
  triclinic box = (-0.14250308 -0.16633729 -0.20388747) to (15.287226 12.927423 16.7019) with tilt (-7.8939615 -0.65236226 0.58293095)
if "${dir} == 3" then    "change_box all z delta 0 ${delta} remap units box"
if "${dir} == 4" then    "change_box all yz delta ${delta} remap units box"
if "${dir} == 5" then    "change_box all xz delta ${delta} remap units box"
if "${dir} == 6" then    "change_box all xy delta ${delta} remap units box"

# Relax atoms positions

minimize ${etol} ${ftol} ${maxiter} ${maxeval}
minimize 0 ${ftol} ${maxiter} ${maxeval}
minimize 0 1e-10 ${maxiter} ${maxeval}
minimize 0 1e-10 100000 ${maxeval}
minimize 0 1e-10 100000 100000
Generated 6 of 6 mixed pair_coeff terms from arithmetic mixing rule
Neighbor list info ...
  update: every = 1 steps, delay = 0 steps, check = yes
  max neighbors/atom: 2000, page size: 100000
  master list distance cutoff = 7
  ghost atom cutoff = 7
  binsize = 3.5, bins = 7 4 5
  1 neighbor lists, perpetual/occasional/extra = 1 0 0
  (1) pair lj/cut, perpetual
      attributes: half, newton on
      pair build: half/bin/newton/tri
      stencil: half/bin/3d/tri
      bin: standard
WARNING: Inconsistent image flags
For more information see https://docs.lammps.org/err0027 (src/domain.cpp:1052)
Per MPI rank memory allocation (min/avg/max) = 17.49 | 17.49 | 17.49 Mbytes
   Step          Temp          E_pair         E_mol          TotEng         Press     
    250315   311.28685     -358.7231       340.54119      254.61686      25983.85     
    250352   311.28685     -383.73747      263.7677       152.829        4044.9735    
Loop time of 0.018674 on 1 procs for 37 steps with 295 atoms

100.0% CPU use with 1 MPI tasks x 1 OpenMP threads

Minimization stats:
  Stopping criterion = linesearch alpha is zero
  Energy initial, next-to-last, final = 
     -18.1819069175762  -119.969774993412  -119.969774993412
  Force two-norm initial, final = 187.76958 16.678098
  Force max component initial, final = 21.829383 2.354748
  Final line search alpha, max atom move = 2.4124116e-11 5.6806213e-11
  Iterations, force evaluations = 37 130

MPI task timing breakdown:
Section |  min time  |  avg time  |  max time  |%varavg| %total
---------------------------------------------------------------
Pair    | 0.013853   | 0.013853   | 0.013853   |   0.0 | 74.18
Bond    | 0.0039422  | 0.0039422  | 0.0039422  |   0.0 | 21.11
Neigh   | 0          | 0          | 0          |   0.0 |  0.00
Comm    | 0.00051084 | 0.00051084 | 0.00051084 |   0.0 |  2.74
Output  | 0          | 0          | 0          |   0.0 |  0.00
Modify  | 0          | 0          | 0          |   0.0 |  0.00
Other   |            | 0.0003681  |            |       |  1.97

Nlocal:            295 ave         295 max         295 min
Histogram: 1 0 0 0 0 0 0 0 0 0
Nghost:           2025 ave        2025 max        2025 min
Histogram: 1 0 0 0 0 0 0 0 0 0
Neighs:          17329 ave       17329 max       17329 min
Histogram: 1 0 0 0 0 0 0 0 0 0

Total # of neighbors = 17329
Ave neighs/atom = 58.742373
Ave special neighs/atom = 6.1966102
Neighbor list builds = 0
Dangerous builds = 0

# Obtain new stress tensor

variable tmp equal pxx
variable pxx1 equal ${tmp}
variable pxx1 equal -691.017261679754
variable tmp equal pyy
variable pyy1 equal ${tmp}
variable pyy1 equal 8674.02097593925
variable tmp equal pzz
variable pzz1 equal ${tmp}
variable pzz1 equal 4151.91664364196
variable tmp equal pxy
variable pxy1 equal ${tmp}
variable pxy1 equal 1210.25011793424
variable tmp equal pxz
variable pxz1 equal ${tmp}
variable pxz1 equal 3175.05957552305
variable tmp equal pyz
variable pyz1 equal ${tmp}
variable pyz1 equal 4481.55231585029

# Compute elastic constant from pressure tensor

variable C1neg equal ${d1}
variable C1neg equal -19.3467689901869
variable C2neg equal ${d2}
variable C2neg equal 27.0021833762104
variable C3neg equal ${d3}
variable C3neg equal 4.10290325757785
variable C4neg equal ${d4}
variable C4neg equal 18.6845810145445
variable C5neg equal ${d5}
variable C5neg equal 11.6832346422836
variable C6neg equal ${d6}
variable C6neg equal -18.2305608742286

# Reset box and simulation parameters

clear
OMP_NUM_THREADS environment is not set. Defaulting to 1 thread.
  using 1 OpenMP thread(s) per MPI task
box tilt large

The 'box' command has been removed and will be ignored

read_restart restart_333-EXP-27-vasp.equil
Reading restart file ...
  restart file = 10 Sep 2025, LAMMPS = 10 Sep 2025
  restoring atom style full from restart
  triclinic box = (-0.14250308 -0.16633729 -0.20388747) to (15.287226 13.194642 16.7019) with tilt (-7.8939615 -0.65236226 0.5948275)
WARNING: Triclinic box skew is large. LAMMPS will run inefficiently. (src/domain.cpp:221)
  1 by 1 by 1 MPI processor grid
  restoring pair style lj/cut from restart
  restoring bond style harmonic from restart
  restoring angle style hybrid from restart
  restoring dihedral style harmonic from restart
  295 atoms
  315 bonds
  599 angles
  759 dihedrals
Finding 1-2 1-3 1-4 neighbors ...
  special bond factors lj:    0        0        1       
  special bond factors coul:  0        0        1       
     4 = max # of 1-2 neighbors
     8 = max # of 1-3 neighbors
    12 = max # of special neighbors
  special bonds CPU = 0.000 seconds
  read_restart CPU = 0.001 seconds
include ./input/angles_333-EXP-27-vasp.mod
angle_style hybrid fourier cosine/periodic
angle_coeff 1 fourier 157.882480        0.343737        0.374972        0.281246
angle_coeff 2 fourier 221.735285        0.343737        0.374972        0.281246
angle_coeff 3 fourier 83.380072        0.343737        0.374972        0.281246
angle_coeff 4 fourier 58.020602        0.343737        0.374972        0.281246
angle_coeff 5 fourier 114.246973        0.343737        0.374972        0.281246
angle_coeff 6 fourier 32.417871        0.343737        0.374972        0.281246
angle_coeff 7 fourier 90.420412        0.343737        0.374972        0.281246
angle_coeff 8 fourier 75.498766        0.343737        0.374972        0.281246
angle_coeff 9 cosine/periodic 88.853997              -1               3

# Positive deformation

variable delta equal ${up}*${len0}
variable delta equal 0.02*${len0}
variable delta equal 0.02*13.3609795753377
variable deltaxy equal ${up}*xy
variable deltaxy equal 0.02*xy
variable deltaxz equal ${up}*xz
variable deltaxz equal 0.02*xz
variable deltayz equal ${up}*yz
variable deltayz equal 0.02*yz
if "${dir} == 1" then    "change_box all x delta 0 ${delta} xy delta ${deltaxy} xz delta ${deltaxz} remap units box"
if "${dir} == 2" then    "change_box all y delta 0 ${delta} yz delta ${deltayz} remap units box"
change_box all y delta 0 ${delta} yz delta ${deltayz} remap units box
change_box all y delta 0 0.267219591506754 yz delta ${deltayz} remap units box
change_box all y delta 0 0.267219591506754 yz delta 0.0118965499404107 remap units box
Changing box ...
WARNING: Triclinic box skew is large. LAMMPS will run inefficiently. (src/domain.cpp:221)
  triclinic box = (-0.14250308 -0.16633729 -0.20388747) to (15.287226 13.461862 16.7019) with tilt (-7.8939615 -0.65236226 0.5948275)
WARNING: Triclinic box skew is large. LAMMPS will run inefficiently. (src/domain.cpp:221)
  triclinic box = (-0.14250308 -0.16633729 -0.20388747) to (15.287226 13.461862 16.7019) with tilt (-7.8939615 -0.65236226 0.60672405)
if "${dir} == 3" then    "change_box all z delta 0 ${delta} remap units box"
if "${dir} == 4" then    "change_box all yz delta ${delta} remap units box"
if "${dir} == 5" then    "change_box all xz delta ${delta} remap units box"
if "${dir} == 6" then    "change_box all xy delta ${delta} remap units box"

# Relax atoms positions

minimize ${etol} ${ftol} ${maxiter} ${maxeval}
minimize 0 ${ftol} ${maxiter} ${maxeval}
minimize 0 1e-10 ${maxiter} ${maxeval}
minimize 0 1e-10 100000 ${maxeval}
minimize 0 1e-10 100000 100000
Generated 6 of 6 mixed pair_coeff terms from arithmetic mixing rule
Neighbor list info ...
  update: every = 1 steps, delay = 0 steps, check = yes
  max neighbors/atom: 2000, page size: 100000
  master list distance cutoff = 7
  ghost atom cutoff = 7
  binsize = 3.5, bins = 7 5 5
  1 neighbor lists, perpetual/occasional/extra = 1 0 0
  (1) pair lj/cut, perpetual
      attributes: half, newton on
      pair build: half/bin/newton/tri
      stencil: half/bin/3d/tri
      bin: standard
WARNING: Inconsistent image flags
For more information see https://docs.lammps.org/err0027 (src/domain.cpp:1052)
Per MPI rank memory allocation (min/avg/max) = 17.49 | 17.49 | 17.49 Mbytes
   Step          Temp          E_pair         E_mol          TotEng         Press     
    250315   311.28685     -376.60074      359.03974      255.23776     -18832.668    
    250347   311.28685     -386.32723      273.23623      159.70778     -4366.4652    
Loop time of 0.0165256 on 1 procs for 32 steps with 295 atoms

100.0% CPU use with 1 MPI tasks x 1 OpenMP threads

Minimization stats:
  Stopping criterion = linesearch alpha is zero
  Energy initial, next-to-last, final = 
     -17.5610055404088  -113.090993264961  -113.090993264961
  Force two-norm initial, final = 185.00412 18.21029
  Force max component initial, final = 21.96489 2.6168052
  Final line search alpha, max atom move = 2.2695784e-11 5.9390445e-11
  Iterations, force evaluations = 32 120

MPI task timing breakdown:
Section |  min time  |  avg time  |  max time  |%varavg| %total
---------------------------------------------------------------
Pair    | 0.012083   | 0.012083   | 0.012083   |   0.0 | 73.12
Bond    | 0.0036552  | 0.0036552  | 0.0036552  |   0.0 | 22.12
Neigh   | 0          | 0          | 0          |   0.0 |  0.00
Comm    | 0.00046704 | 0.00046704 | 0.00046704 |   0.0 |  2.83
Output  | 0          | 0          | 0          |   0.0 |  0.00
Modify  | 0          | 0          | 0          |   0.0 |  0.00
Other   |            | 0.0003201  |            |       |  1.94

Nlocal:            295 ave         295 max         295 min
Histogram: 1 0 0 0 0 0 0 0 0 0
Nghost:           1977 ave        1977 max        1977 min
Histogram: 1 0 0 0 0 0 0 0 0 0
Neighs:          16606 ave       16606 max       16606 min
Histogram: 1 0 0 0 0 0 0 0 0 0

Total # of neighbors = 16606
Ave neighs/atom = 56.291525
Ave special neighs/atom = 6.1966102
Neighbor list builds = 0
Dangerous builds = 0

# Obtain new stress tensor

variable tmp equal pe
variable e1 equal ${tmp}
variable e1 equal -113.090993264961
variable tmp equal press
variable p1 equal ${tmp}
variable p1 equal -4366.46516588776
variable tmp equal pxx
variable pxx1 equal ${tmp}
variable pxx1 equal -5958.61315320578
variable tmp equal pyy
variable pyy1 equal ${tmp}
variable pyy1 equal -4961.40073029975
variable tmp equal pzz
variable pzz1 equal ${tmp}
variable pzz1 equal -2179.38161415776
variable tmp equal pxy
variable pxy1 equal ${tmp}
variable pxy1 equal 4015.37110718353
variable tmp equal pxz
variable pxz1 equal ${tmp}
variable pxz1 equal 2384.43891927434
variable tmp equal pyz
variable pyz1 equal ${tmp}
variable pyz1 equal 2588.80358479993

# Compute elastic constant from pressure tensor

variable C1pos equal ${d1}
variable C1pos equal 45.684748447817
variable C2pos equal ${d2}
variable C2pos equal 41.1749251549845
variable C3pos equal ${d3}
variable C3pos equal 27.5535880314208
variable C4pos equal ${d4}
variable C4pos equal -9.22083735929273
variable C5pos equal ${d5}
variable C5pos equal -7.73013136104009
variable C6pos equal ${d6}
variable C6pos equal 4.2049559279822

# Combine positive and negative

variable C1${dir} equal 0.5*(${C1neg}+${C1pos})
variable C12 equal 0.5*(${C1neg}+${C1pos})
variable C12 equal 0.5*(-19.3467689901869+${C1pos})
variable C12 equal 0.5*(-19.3467689901869+45.684748447817)
variable C2${dir} equal 0.5*(${C2neg}+${C2pos})
variable C22 equal 0.5*(${C2neg}+${C2pos})
variable C22 equal 0.5*(27.0021833762104+${C2pos})
variable C22 equal 0.5*(27.0021833762104+41.1749251549845)
variable C3${dir} equal 0.5*(${C3neg}+${C3pos})
variable C32 equal 0.5*(${C3neg}+${C3pos})
variable C32 equal 0.5*(4.10290325757785+${C3pos})
variable C32 equal 0.5*(4.10290325757785+27.5535880314208)
variable C4${dir} equal 0.5*(${C4neg}+${C4pos})
variable C42 equal 0.5*(${C4neg}+${C4pos})
variable C42 equal 0.5*(18.6845810145445+${C4pos})
variable C42 equal 0.5*(18.6845810145445+-9.22083735929273)
variable C5${dir} equal 0.5*(${C5neg}+${C5pos})
variable C52 equal 0.5*(${C5neg}+${C5pos})
variable C52 equal 0.5*(11.6832346422836+${C5pos})
variable C52 equal 0.5*(11.6832346422836+-7.73013136104009)
variable C6${dir} equal 0.5*(${C6neg}+${C6pos})
variable C62 equal 0.5*(${C6neg}+${C6pos})
variable C62 equal 0.5*(-18.2305608742286+${C6pos})
variable C62 equal 0.5*(-18.2305608742286+4.2049559279822)

# Delete dir to make sure it is not reused

variable dir delete

# uzz Perturbation

variable dir equal 3
include ./input/displace_333-EXP-27-vasp.mod
if "${dir} == 1" then    "variable len0 equal ${lx0}"
if "${dir} == 2" then    "variable len0 equal ${ly0}"
if "${dir} == 3" then    "variable len0 equal ${lz0}"
variable len0 equal ${lz0}
variable len0 equal 16.9057879317147
if "${dir} == 4" then    "variable len0 equal ${lz0}"
if "${dir} == 5" then    "variable len0 equal ${lz0}"
if "${dir} == 6" then    "variable len0 equal ${ly0}"

# Reset box and simulation parameters

clear
OMP_NUM_THREADS environment is not set. Defaulting to 1 thread.
  using 1 OpenMP thread(s) per MPI task
box tilt large

The 'box' command has been removed and will be ignored

read_restart restart_333-EXP-27-vasp.equil
Reading restart file ...
  restart file = 10 Sep 2025, LAMMPS = 10 Sep 2025
  restoring atom style full from restart
  triclinic box = (-0.14250308 -0.16633729 -0.20388747) to (15.287226 13.194642 16.7019) with tilt (-7.8939615 -0.65236226 0.5948275)
WARNING: Triclinic box skew is large. LAMMPS will run inefficiently. (src/domain.cpp:221)
  1 by 1 by 1 MPI processor grid
  restoring pair style lj/cut from restart
  restoring bond style harmonic from restart
  restoring angle style hybrid from restart
  restoring dihedral style harmonic from restart
  295 atoms
  315 bonds
  599 angles
  759 dihedrals
Finding 1-2 1-3 1-4 neighbors ...
  special bond factors lj:    0        0        1       
  special bond factors coul:  0        0        1       
     4 = max # of 1-2 neighbors
     8 = max # of 1-3 neighbors
    12 = max # of special neighbors
  special bonds CPU = 0.000 seconds
  read_restart CPU = 0.001 seconds
include ./input/angles_333-EXP-27-vasp.mod
angle_style hybrid fourier cosine/periodic
angle_coeff 1 fourier 157.882480        0.343737        0.374972        0.281246
angle_coeff 2 fourier 221.735285        0.343737        0.374972        0.281246
angle_coeff 3 fourier 83.380072        0.343737        0.374972        0.281246
angle_coeff 4 fourier 58.020602        0.343737        0.374972        0.281246
angle_coeff 5 fourier 114.246973        0.343737        0.374972        0.281246
angle_coeff 6 fourier 32.417871        0.343737        0.374972        0.281246
angle_coeff 7 fourier 90.420412        0.343737        0.374972        0.281246
angle_coeff 8 fourier 75.498766        0.343737        0.374972        0.281246
angle_coeff 9 cosine/periodic 88.853997              -1               3

# Negative deformation

variable delta equal -${up}*${len0}
variable delta equal -0.02*${len0}
variable delta equal -0.02*16.9057879317147
variable deltaxy equal -${up}*xy
variable deltaxy equal -0.02*xy
variable deltaxz equal -${up}*xz
variable deltaxz equal -0.02*xz
variable deltayz equal -${up}*yz
variable deltayz equal -0.02*yz
if "${dir} == 1" then    "change_box all x delta 0 ${delta} xy delta ${deltaxy} xz delta ${deltaxz} remap units box"
if "${dir} == 2" then    "change_box all y delta 0 ${delta} yz delta ${deltayz} remap units box"
if "${dir} == 3" then    "change_box all z delta 0 ${delta} remap units box"
change_box all z delta 0 ${delta} remap units box
change_box all z delta 0 -0.338115758634294 remap units box
Changing box ...
WARNING: Triclinic box skew is large. LAMMPS will run inefficiently. (src/domain.cpp:221)
  triclinic box = (-0.14250308 -0.16633729 -0.20388747) to (15.287226 13.194642 16.363785) with tilt (-7.8939615 -0.65236226 0.5948275)
if "${dir} == 4" then    "change_box all yz delta ${delta} remap units box"
if "${dir} == 5" then    "change_box all xz delta ${delta} remap units box"
if "${dir} == 6" then    "change_box all xy delta ${delta} remap units box"

# Relax atoms positions

minimize ${etol} ${ftol} ${maxiter} ${maxeval}
minimize 0 ${ftol} ${maxiter} ${maxeval}
minimize 0 1e-10 ${maxiter} ${maxeval}
minimize 0 1e-10 100000 ${maxeval}
minimize 0 1e-10 100000 100000
Generated 6 of 6 mixed pair_coeff terms from arithmetic mixing rule
Neighbor list info ...
  update: every = 1 steps, delay = 0 steps, check = yes
  max neighbors/atom: 2000, page size: 100000
  master list distance cutoff = 7
  ghost atom cutoff = 7
  binsize = 3.5, bins = 7 4 5
  1 neighbor lists, perpetual/occasional/extra = 1 0 0
  (1) pair lj/cut, perpetual
      attributes: half, newton on
      pair build: half/bin/newton/tri
      stencil: half/bin/3d/tri
      bin: standard
WARNING: Inconsistent image flags
For more information see https://docs.lammps.org/err0027 (src/domain.cpp:1052)
Per MPI rank memory allocation (min/avg/max) = 17.49 | 17.49 | 17.49 Mbytes
   Step          Temp          E_pair         E_mol          TotEng         Press     
    250315   311.28685     -357.45378      340.89327      256.23826      26543.543    
    250354   311.28685     -381.27575      261.56831      153.09133      5127.4259    
Loop time of 0.0189424 on 1 procs for 39 steps with 295 atoms

100.0% CPU use with 1 MPI tasks x 1 OpenMP threads

Minimization stats:
  Stopping criterion = linesearch alpha is zero
  Energy initial, next-to-last, final = 
     -16.5605092152796  -119.707438349395  -119.707438349395
  Force two-norm initial, final = 193.13304 14.97479
  Force max component initial, final = 23.295568 1.8616586
  Final line search alpha, max atom move = 5.5029455e-11 1.0244606e-10
  Iterations, force evaluations = 39 132

MPI task timing breakdown:
Section |  min time  |  avg time  |  max time  |%varavg| %total
---------------------------------------------------------------
Pair    | 0.014087   | 0.014087   | 0.014087   |   0.0 | 74.37
Bond    | 0.0039703  | 0.0039703  | 0.0039703  |   0.0 | 20.96
Neigh   | 0          | 0          | 0          |   0.0 |  0.00
Comm    | 0.00051025 | 0.00051025 | 0.00051025 |   0.0 |  2.69
Output  | 0          | 0          | 0          |   0.0 |  0.00
Modify  | 0          | 0          | 0          |   0.0 |  0.00
Other   |            | 0.0003751  |            |       |  1.98

Nlocal:            295 ave         295 max         295 min
Histogram: 1 0 0 0 0 0 0 0 0 0
Nghost:           2007 ave        2007 max        2007 min
Histogram: 1 0 0 0 0 0 0 0 0 0
Neighs:          17315 ave       17315 max       17315 min
Histogram: 1 0 0 0 0 0 0 0 0 0

Total # of neighbors = 17315
Ave neighs/atom = 58.694915
Ave special neighs/atom = 6.1966102
Neighbor list builds = 0
Dangerous builds = 0

# Obtain new stress tensor

variable tmp equal pxx
variable pxx1 equal ${tmp}
variable pxx1 equal 192.934986280905
variable tmp equal pyy
variable pyy1 equal ${tmp}
variable pyy1 equal 4826.43902868391
variable tmp equal pzz
variable pzz1 equal ${tmp}
variable pzz1 equal 10362.9037439942
variable tmp equal pxy
variable pxy1 equal ${tmp}
variable pxy1 equal 2372.96439878359
variable tmp equal pxz
variable pxz1 equal ${tmp}
variable pxz1 equal 2681.41012015729
variable tmp equal pyz
variable pyz1 equal ${tmp}
variable pyz1 equal 4898.59859048385

# Compute elastic constant from pressure tensor

variable C1neg equal ${d1}
variable C1neg equal -14.9270077503836
variable C2neg equal ${d2}
variable C2neg equal 7.76427363993375
variable C3neg equal ${d3}
variable C3neg equal 35.1578387593391
variable C4neg equal ${d4}
variable C4neg equal 20.7698123877123
variable C5neg equal ${d5}
variable C5neg equal 9.21498736545484
variable C6neg equal ${d6}
variable C6neg equal -12.4169894699819

# Reset box and simulation parameters

clear
OMP_NUM_THREADS environment is not set. Defaulting to 1 thread.
  using 1 OpenMP thread(s) per MPI task
box tilt large

The 'box' command has been removed and will be ignored

read_restart restart_333-EXP-27-vasp.equil
Reading restart file ...
  restart file = 10 Sep 2025, LAMMPS = 10 Sep 2025
  restoring atom style full from restart
  triclinic box = (-0.14250308 -0.16633729 -0.20388747) to (15.287226 13.194642 16.7019) with tilt (-7.8939615 -0.65236226 0.5948275)
WARNING: Triclinic box skew is large. LAMMPS will run inefficiently. (src/domain.cpp:221)
  1 by 1 by 1 MPI processor grid
  restoring pair style lj/cut from restart
  restoring bond style harmonic from restart
  restoring angle style hybrid from restart
  restoring dihedral style harmonic from restart
  295 atoms
  315 bonds
  599 angles
  759 dihedrals
Finding 1-2 1-3 1-4 neighbors ...
  special bond factors lj:    0        0        1       
  special bond factors coul:  0        0        1       
     4 = max # of 1-2 neighbors
     8 = max # of 1-3 neighbors
    12 = max # of special neighbors
  special bonds CPU = 0.000 seconds
  read_restart CPU = 0.001 seconds
include ./input/angles_333-EXP-27-vasp.mod
angle_style hybrid fourier cosine/periodic
angle_coeff 1 fourier 157.882480        0.343737        0.374972        0.281246
angle_coeff 2 fourier 221.735285        0.343737        0.374972        0.281246
angle_coeff 3 fourier 83.380072        0.343737        0.374972        0.281246
angle_coeff 4 fourier 58.020602        0.343737        0.374972        0.281246
angle_coeff 5 fourier 114.246973        0.343737        0.374972        0.281246
angle_coeff 6 fourier 32.417871        0.343737        0.374972        0.281246
angle_coeff 7 fourier 90.420412        0.343737        0.374972        0.281246
angle_coeff 8 fourier 75.498766        0.343737        0.374972        0.281246
angle_coeff 9 cosine/periodic 88.853997              -1               3

# Positive deformation

variable delta equal ${up}*${len0}
variable delta equal 0.02*${len0}
variable delta equal 0.02*16.9057879317147
variable deltaxy equal ${up}*xy
variable deltaxy equal 0.02*xy
variable deltaxz equal ${up}*xz
variable deltaxz equal 0.02*xz
variable deltayz equal ${up}*yz
variable deltayz equal 0.02*yz
if "${dir} == 1" then    "change_box all x delta 0 ${delta} xy delta ${deltaxy} xz delta ${deltaxz} remap units box"
if "${dir} == 2" then    "change_box all y delta 0 ${delta} yz delta ${deltayz} remap units box"
if "${dir} == 3" then    "change_box all z delta 0 ${delta} remap units box"
change_box all z delta 0 ${delta} remap units box
change_box all z delta 0 0.338115758634294 remap units box
Changing box ...
WARNING: Triclinic box skew is large. LAMMPS will run inefficiently. (src/domain.cpp:221)
  triclinic box = (-0.14250308 -0.16633729 -0.20388747) to (15.287226 13.194642 17.040016) with tilt (-7.8939615 -0.65236226 0.5948275)
if "${dir} == 4" then    "change_box all yz delta ${delta} remap units box"
if "${dir} == 5" then    "change_box all xz delta ${delta} remap units box"
if "${dir} == 6" then    "change_box all xy delta ${delta} remap units box"

# Relax atoms positions

minimize ${etol} ${ftol} ${maxiter} ${maxeval}
minimize 0 ${ftol} ${maxiter} ${maxeval}
minimize 0 1e-10 ${maxiter} ${maxeval}
minimize 0 1e-10 100000 ${maxeval}
minimize 0 1e-10 100000 100000
Generated 6 of 6 mixed pair_coeff terms from arithmetic mixing rule
Neighbor list info ...
  update: every = 1 steps, delay = 0 steps, check = yes
  max neighbors/atom: 2000, page size: 100000
  master list distance cutoff = 7
  ghost atom cutoff = 7
  binsize = 3.5, bins = 7 4 5
  1 neighbor lists, perpetual/occasional/extra = 1 0 0
  (1) pair lj/cut, perpetual
      attributes: half, newton on
      pair build: half/bin/newton/tri
      stencil: half/bin/3d/tri
      bin: standard
WARNING: Inconsistent image flags
For more information see https://docs.lammps.org/err0027 (src/domain.cpp:1052)
Per MPI rank memory allocation (min/avg/max) = 17.49 | 17.49 | 17.49 Mbytes
   Step          Temp          E_pair         E_mol          TotEng         Press     
    250315   311.28685     -376.28482      359.31769      255.83164     -19333.064    
    250346   311.28685     -388.04738      276.80343      161.55482     -5313.1823    
Loop time of 0.0164446 on 1 procs for 31 steps with 295 atoms

100.0% CPU use with 1 MPI tasks x 1 OpenMP threads

Minimization stats:
  Stopping criterion = linesearch alpha is zero
  Energy initial, next-to-last, final = 
     -16.9671304786658  -111.243952965156  -111.243952965156
  Force two-norm initial, final = 187.82621 18.414876
  Force max component initial, final = 24.667814 2.3383223
  Final line search alpha, max atom move = 2.5437175e-11 5.9480312e-11
  Iterations, force evaluations = 31 118

MPI task timing breakdown:
Section |  min time  |  avg time  |  max time  |%varavg| %total
---------------------------------------------------------------
Pair    | 0.012074   | 0.012074   | 0.012074   |   0.0 | 73.42
Bond    | 0.0036064  | 0.0036064  | 0.0036064  |   0.0 | 21.93
Neigh   | 0          | 0          | 0          |   0.0 |  0.00
Comm    | 0.00044896 | 0.00044896 | 0.00044896 |   0.0 |  2.73
Output  | 0          | 0          | 0          |   0.0 |  0.00
Modify  | 0          | 0          | 0          |   0.0 |  0.00
Other   |            | 0.0003148  |            |       |  1.91

Nlocal:            295 ave         295 max         295 min
Histogram: 1 0 0 0 0 0 0 0 0 0
Nghost:           1979 ave        1979 max        1979 min
Histogram: 1 0 0 0 0 0 0 0 0 0
Neighs:          16611 ave       16611 max       16611 min
Histogram: 1 0 0 0 0 0 0 0 0 0

Total # of neighbors = 16611
Ave neighs/atom = 56.308475
Ave special neighs/atom = 6.1966102
Neighbor list builds = 0
Dangerous builds = 0

# Obtain new stress tensor

variable tmp equal pe
variable e1 equal ${tmp}
variable e1 equal -111.243952965156
variable tmp equal press
variable p1 equal ${tmp}
variable p1 equal -5313.18228201151
variable tmp equal pxx
variable pxx1 equal ${tmp}
variable pxx1 equal -6671.70530822973
variable tmp equal pyy
variable pyy1 equal ${tmp}
variable pyy1 equal -1413.23221912979
variable tmp equal pzz
variable pzz1 equal ${tmp}
variable pzz1 equal -7854.609318675
variable tmp equal pxy
variable pxy1 equal ${tmp}
variable pxy1 equal 2857.11262537398
variable tmp equal pxz
variable pxz1 equal ${tmp}
variable pxz1 equal 2773.80576196353
variable tmp equal pyz
variable pyz1 equal ${tmp}
variable pyz1 equal 2507.37126614755

# Compute elastic constant from pressure tensor

variable C1pos equal ${d1}
variable C1pos equal 49.2502092229367
variable C2pos equal ${d2}
variable C2pos equal 23.4340825991348
variable C3pos equal ${d3}
variable C3pos equal 55.929726554007
variable C4pos equal ${d4}
variable C4pos equal -8.81367576603084
variable C5pos equal ${d5}
variable C5pos equal -9.67696557448604
variable C6pos equal ${d6}
variable C6pos equal 9.99624833702995

# Combine positive and negative

variable C1${dir} equal 0.5*(${C1neg}+${C1pos})
variable C13 equal 0.5*(${C1neg}+${C1pos})
variable C13 equal 0.5*(-14.9270077503836+${C1pos})
variable C13 equal 0.5*(-14.9270077503836+49.2502092229367)
variable C2${dir} equal 0.5*(${C2neg}+${C2pos})
variable C23 equal 0.5*(${C2neg}+${C2pos})
variable C23 equal 0.5*(7.76427363993375+${C2pos})
variable C23 equal 0.5*(7.76427363993375+23.4340825991348)
variable C3${dir} equal 0.5*(${C3neg}+${C3pos})
variable C33 equal 0.5*(${C3neg}+${C3pos})
variable C33 equal 0.5*(35.1578387593391+${C3pos})
variable C33 equal 0.5*(35.1578387593391+55.929726554007)
variable C4${dir} equal 0.5*(${C4neg}+${C4pos})
variable C43 equal 0.5*(${C4neg}+${C4pos})
variable C43 equal 0.5*(20.7698123877123+${C4pos})
variable C43 equal 0.5*(20.7698123877123+-8.81367576603084)
variable C5${dir} equal 0.5*(${C5neg}+${C5pos})
variable C53 equal 0.5*(${C5neg}+${C5pos})
variable C53 equal 0.5*(9.21498736545484+${C5pos})
variable C53 equal 0.5*(9.21498736545484+-9.67696557448604)
variable C6${dir} equal 0.5*(${C6neg}+${C6pos})
variable C63 equal 0.5*(${C6neg}+${C6pos})
variable C63 equal 0.5*(-12.4169894699819+${C6pos})
variable C63 equal 0.5*(-12.4169894699819+9.99624833702995)

# Delete dir to make sure it is not reused

variable dir delete

# uyz Perturbation

variable dir equal 4
include ./input/displace_333-EXP-27-vasp.mod
if "${dir} == 1" then    "variable len0 equal ${lx0}"
if "${dir} == 2" then    "variable len0 equal ${ly0}"
if "${dir} == 3" then    "variable len0 equal ${lz0}"
if "${dir} == 4" then    "variable len0 equal ${lz0}"
variable len0 equal ${lz0}
variable len0 equal 16.9057879317147
if "${dir} == 5" then    "variable len0 equal ${lz0}"
if "${dir} == 6" then    "variable len0 equal ${ly0}"

# Reset box and simulation parameters

clear
OMP_NUM_THREADS environment is not set. Defaulting to 1 thread.
  using 1 OpenMP thread(s) per MPI task
box tilt large

The 'box' command has been removed and will be ignored

read_restart restart_333-EXP-27-vasp.equil
Reading restart file ...
  restart file = 10 Sep 2025, LAMMPS = 10 Sep 2025
  restoring atom style full from restart
  triclinic box = (-0.14250308 -0.16633729 -0.20388747) to (15.287226 13.194642 16.7019) with tilt (-7.8939615 -0.65236226 0.5948275)
WARNING: Triclinic box skew is large. LAMMPS will run inefficiently. (src/domain.cpp:221)
  1 by 1 by 1 MPI processor grid
  restoring pair style lj/cut from restart
  restoring bond style harmonic from restart
  restoring angle style hybrid from restart
  restoring dihedral style harmonic from restart
  295 atoms
  315 bonds
  599 angles
  759 dihedrals
Finding 1-2 1-3 1-4 neighbors ...
  special bond factors lj:    0        0        1       
  special bond factors coul:  0        0        1       
     4 = max # of 1-2 neighbors
     8 = max # of 1-3 neighbors
    12 = max # of special neighbors
  special bonds CPU = 0.000 seconds
  read_restart CPU = 0.001 seconds
include ./input/angles_333-EXP-27-vasp.mod
angle_style hybrid fourier cosine/periodic
angle_coeff 1 fourier 157.882480        0.343737        0.374972        0.281246
angle_coeff 2 fourier 221.735285        0.343737        0.374972        0.281246
angle_coeff 3 fourier 83.380072        0.343737        0.374972        0.281246
angle_coeff 4 fourier 58.020602        0.343737        0.374972        0.281246
angle_coeff 5 fourier 114.246973        0.343737        0.374972        0.281246
angle_coeff 6 fourier 32.417871        0.343737        0.374972        0.281246
angle_coeff 7 fourier 90.420412        0.343737        0.374972        0.281246
angle_coeff 8 fourier 75.498766        0.343737        0.374972        0.281246
angle_coeff 9 cosine/periodic 88.853997              -1               3

# Negative deformation

variable delta equal -${up}*${len0}
variable delta equal -0.02*${len0}
variable delta equal -0.02*16.9057879317147
variable deltaxy equal -${up}*xy
variable deltaxy equal -0.02*xy
variable deltaxz equal -${up}*xz
variable deltaxz equal -0.02*xz
variable deltayz equal -${up}*yz
variable deltayz equal -0.02*yz
if "${dir} == 1" then    "change_box all x delta 0 ${delta} xy delta ${deltaxy} xz delta ${deltaxz} remap units box"
if "${dir} == 2" then    "change_box all y delta 0 ${delta} yz delta ${deltayz} remap units box"
if "${dir} == 3" then    "change_box all z delta 0 ${delta} remap units box"
if "${dir} == 4" then    "change_box all yz delta ${delta} remap units box"
change_box all yz delta ${delta} remap units box
change_box all yz delta -0.338115758634294 remap units box
Changing box ...
WARNING: Triclinic box skew is large. LAMMPS will run inefficiently. (src/domain.cpp:221)
  triclinic box = (-0.14250308 -0.16633729 -0.20388747) to (15.287226 13.194642 16.7019) with tilt (-7.8939615 -0.65236226 0.25671174)
if "${dir} == 5" then    "change_box all xz delta ${delta} remap units box"
if "${dir} == 6" then    "change_box all xy delta ${delta} remap units box"

# Relax atoms positions

minimize ${etol} ${ftol} ${maxiter} ${maxeval}
minimize 0 ${ftol} ${maxiter} ${maxeval}
minimize 0 1e-10 ${maxiter} ${maxeval}
minimize 0 1e-10 100000 ${maxeval}
minimize 0 1e-10 100000 100000
Generated 6 of 6 mixed pair_coeff terms from arithmetic mixing rule
Neighbor list info ...
  update: every = 1 steps, delay = 0 steps, check = yes
  max neighbors/atom: 2000, page size: 100000
  master list distance cutoff = 7
  ghost atom cutoff = 7
  binsize = 3.5, bins = 7 4 5
  1 neighbor lists, perpetual/occasional/extra = 1 0 0
  (1) pair lj/cut, perpetual
      attributes: half, newton on
      pair build: half/bin/newton/tri
      stencil: half/bin/3d/tri
      bin: standard
WARNING: Inconsistent image flags
For more information see https://docs.lammps.org/err0027 (src/domain.cpp:1052)
Per MPI rank memory allocation (min/avg/max) = 17.49 | 17.49 | 17.49 Mbytes
   Step          Temp          E_pair         E_mol          TotEng         Press     
    250315   311.28685     -367.81506      337.82475      242.80847      3709.5638    
    250359   311.28685     -383.37653      265.69239      155.11463      457.69882    
Loop time of 0.0203367 on 1 procs for 44 steps with 295 atoms

100.0% CPU use with 1 MPI tasks x 1 OpenMP threads

Minimization stats:
  Stopping criterion = linesearch alpha is zero
  Energy initial, next-to-last, final = 
     -29.9903019786636  -117.684140554492  -117.684140554492
  Force two-norm initial, final = 159.49898 13.825176
  Force max component initial, final = 17.261875 1.6652837
  Final line search alpha, max atom move = 4.6298333e-11 7.7099857e-11
  Iterations, force evaluations = 44 143

MPI task timing breakdown:
Section |  min time  |  avg time  |  max time  |%varavg| %total
---------------------------------------------------------------
Pair    | 0.01504    | 0.01504    | 0.01504    |   0.0 | 73.95
Bond    | 0.0043328  | 0.0043328  | 0.0043328  |   0.0 | 21.31
Neigh   | 0          | 0          | 0          |   0.0 |  0.00
Comm    | 0.00056134 | 0.00056134 | 0.00056134 |   0.0 |  2.76
Output  | 0          | 0          | 0          |   0.0 |  0.00
Modify  | 0          | 0          | 0          |   0.0 |  0.00
Other   |            | 0.0004028  |            |       |  1.98

Nlocal:            295 ave         295 max         295 min
Histogram: 1 0 0 0 0 0 0 0 0 0
Nghost:           1995 ave        1995 max        1995 min
Histogram: 1 0 0 0 0 0 0 0 0 0
Neighs:          16957 ave       16957 max       16957 min
Histogram: 1 0 0 0 0 0 0 0 0 0

Total # of neighbors = 16957
Ave neighs/atom = 57.481356
Ave special neighs/atom = 6.1966102
Neighbor list builds = 0
Dangerous builds = 0

# Obtain new stress tensor

variable tmp equal pxx
variable pxx1 equal ${tmp}
variable pxx1 equal -2738.33091886295
variable tmp equal pyy
variable pyy1 equal ${tmp}
variable pyy1 equal 2249.16422986925
variable tmp equal pzz
variable pzz1 equal ${tmp}
variable pzz1 equal 1862.26314081771
variable tmp equal pxy
variable pxy1 equal ${tmp}
variable pxy1 equal 2370.15082937797
variable tmp equal pxz
variable pxz1 equal ${tmp}
variable pxz1 equal 3125.36472156308
variable tmp equal pyz
variable pyz1 equal ${tmp}
variable pyz1 equal 5661.42935965124

# Compute elastic constant from pressure tensor

variable C1neg equal ${d1}
variable C1neg equal -29.5833372761028
variable C2neg equal ${d2}
variable C2neg equal -5.12210035413955
variable C3neg equal ${d3}
variable C3neg equal -7.3453642565434
variable C4neg equal ${d4}
variable C4neg equal 24.5839662335493
variable C5neg equal ${d5}
variable C5neg equal 11.4347603724838
variable C6neg equal ${d6}
variable C6neg equal -12.43105731701

# Reset box and simulation parameters

clear
OMP_NUM_THREADS environment is not set. Defaulting to 1 thread.
  using 1 OpenMP thread(s) per MPI task
box tilt large

The 'box' command has been removed and will be ignored

read_restart restart_333-EXP-27-vasp.equil
Reading restart file ...
  restart file = 10 Sep 2025, LAMMPS = 10 Sep 2025
  restoring atom style full from restart
  triclinic box = (-0.14250308 -0.16633729 -0.20388747) to (15.287226 13.194642 16.7019) with tilt (-7.8939615 -0.65236226 0.5948275)
WARNING: Triclinic box skew is large. LAMMPS will run inefficiently. (src/domain.cpp:221)
  1 by 1 by 1 MPI processor grid
  restoring pair style lj/cut from restart
  restoring bond style harmonic from restart
  restoring angle style hybrid from restart
  restoring dihedral style harmonic from restart
  295 atoms
  315 bonds
  599 angles
  759 dihedrals
Finding 1-2 1-3 1-4 neighbors ...
  special bond factors lj:    0        0        1       
  special bond factors coul:  0        0        1       
     4 = max # of 1-2 neighbors
     8 = max # of 1-3 neighbors
    12 = max # of special neighbors
  special bonds CPU = 0.000 seconds
  read_restart CPU = 0.001 seconds
include ./input/angles_333-EXP-27-vasp.mod
angle_style hybrid fourier cosine/periodic
angle_coeff 1 fourier 157.882480        0.343737        0.374972        0.281246
angle_coeff 2 fourier 221.735285        0.343737        0.374972        0.281246
angle_coeff 3 fourier 83.380072        0.343737        0.374972        0.281246
angle_coeff 4 fourier 58.020602        0.343737        0.374972        0.281246
angle_coeff 5 fourier 114.246973        0.343737        0.374972        0.281246
angle_coeff 6 fourier 32.417871        0.343737        0.374972        0.281246
angle_coeff 7 fourier 90.420412        0.343737        0.374972        0.281246
angle_coeff 8 fourier 75.498766        0.343737        0.374972        0.281246
angle_coeff 9 cosine/periodic 88.853997              -1               3

# Positive deformation

variable delta equal ${up}*${len0}
variable delta equal 0.02*${len0}
variable delta equal 0.02*16.9057879317147
variable deltaxy equal ${up}*xy
variable deltaxy equal 0.02*xy
variable deltaxz equal ${up}*xz
variable deltaxz equal 0.02*xz
variable deltayz equal ${up}*yz
variable deltayz equal 0.02*yz
if "${dir} == 1" then    "change_box all x delta 0 ${delta} xy delta ${deltaxy} xz delta ${deltaxz} remap units box"
if "${dir} == 2" then    "change_box all y delta 0 ${delta} yz delta ${deltayz} remap units box"
if "${dir} == 3" then    "change_box all z delta 0 ${delta} remap units box"
if "${dir} == 4" then    "change_box all yz delta ${delta} remap units box"
change_box all yz delta ${delta} remap units box
change_box all yz delta 0.338115758634294 remap units box
Changing box ...
WARNING: Triclinic box skew is large. LAMMPS will run inefficiently. (src/domain.cpp:221)
  triclinic box = (-0.14250308 -0.16633729 -0.20388747) to (15.287226 13.194642 16.7019) with tilt (-7.8939615 -0.65236226 0.93294326)
if "${dir} == 5" then    "change_box all xz delta ${delta} remap units box"
if "${dir} == 6" then    "change_box all xy delta ${delta} remap units box"

# Relax atoms positions

minimize ${etol} ${ftol} ${maxiter} ${maxeval}
minimize 0 ${ftol} ${maxiter} ${maxeval}
minimize 0 1e-10 ${maxiter} ${maxeval}
minimize 0 1e-10 100000 ${maxeval}
minimize 0 1e-10 100000 100000
Generated 6 of 6 mixed pair_coeff terms from arithmetic mixing rule
Neighbor list info ...
  update: every = 1 steps, delay = 0 steps, check = yes
  max neighbors/atom: 2000, page size: 100000
  master list distance cutoff = 7
  ghost atom cutoff = 7
  binsize = 3.5, bins = 7 5 5
  1 neighbor lists, perpetual/occasional/extra = 1 0 0
  (1) pair lj/cut, perpetual
      attributes: half, newton on
      pair build: half/bin/newton/tri
      stencil: half/bin/3d/tri
      bin: standard
WARNING: Inconsistent image flags
For more information see https://docs.lammps.org/err0027 (src/domain.cpp:1052)
Per MPI rank memory allocation (min/avg/max) = 17.49 | 17.49 | 17.49 Mbytes
   Step          Temp          E_pair         E_mol          TotEng         Press     
    250315   311.28685     -369.71586      338.83398      241.91689      2379.0447    
    250356   311.28685     -389.49914      266.75736      150.05699     -1510.6257    
Loop time of 0.0235503 on 1 procs for 41 steps with 295 atoms

100.0% CPU use with 1 MPI tasks x 1 OpenMP threads

Minimization stats:
  Stopping criterion = linesearch alpha is zero
  Energy initial, next-to-last, final = 
     -30.8818790864615   -122.74178424859   -122.74178424859
  Force two-norm initial, final = 159.99006 10.613575
  Force max component initial, final = 17.715197 1.8413053
  Final line search alpha, max atom move = 9.8787896e-11 1.8189867e-10
  Iterations, force evaluations = 41 169

MPI task timing breakdown:
Section |  min time  |  avg time  |  max time  |%varavg| %total
---------------------------------------------------------------
Pair    | 0.017358   | 0.017358   | 0.017358   |   0.0 | 73.71
Bond    | 0.0051215  | 0.0051215  | 0.0051215  |   0.0 | 21.75
Neigh   | 0          | 0          | 0          |   0.0 |  0.00
Comm    | 0.00062997 | 0.00062997 | 0.00062997 |   0.0 |  2.68
Output  | 0          | 0          | 0          |   0.0 |  0.00
Modify  | 0          | 0          | 0          |   0.0 |  0.00
Other   |            | 0.0004404  |            |       |  1.87

Nlocal:            295 ave         295 max         295 min
Histogram: 1 0 0 0 0 0 0 0 0 0
Nghost:           1991 ave        1991 max        1991 min
Histogram: 1 0 0 0 0 0 0 0 0 0
Neighs:          16978 ave       16978 max       16978 min
Histogram: 1 0 0 0 0 0 0 0 0 0

Total # of neighbors = 16978
Ave neighs/atom = 57.552542
Ave special neighs/atom = 6.1966102
Neighbor list builds = 0
Dangerous builds = 0

# Obtain new stress tensor

variable tmp equal pe
variable e1 equal ${tmp}
variable e1 equal -122.74178424859
variable tmp equal press
variable p1 equal ${tmp}
variable p1 equal -1510.62571958619
variable tmp equal pxx
variable pxx1 equal ${tmp}
variable pxx1 equal -4377.89301316866
variable tmp equal pyy
variable pyy1 equal ${tmp}
variable pyy1 equal 392.048932326214
variable tmp equal pzz
variable pzz1 equal ${tmp}
variable pzz1 equal -546.033077916112
variable tmp equal pxy
variable pxy1 equal ${tmp}
variable pxy1 equal 2859.797313754
variable tmp equal pxz
variable pxz1 equal ${tmp}
variable pxz1 equal 3062.59316683341
variable tmp equal pyz
variable pyz1 equal ${tmp}
variable pyz1 equal 935.301322147362

# Compute elastic constant from pressure tensor

variable C1pos equal ${d1}
variable C1pos equal 37.7811477476314
variable C2pos equal ${d2}
variable C2pos equal 14.4076768418547
variable C3pos equal ${d3}
variable C3pos equal 19.3868453502125
variable C4pos equal ${d4}
variable C4pos equal -0.953326046029895
variable C5pos equal ${d5}
variable C5pos equal -11.1209025988354
variable C6pos equal ${d6}
variable C6pos equal 9.98282489512985

# Combine positive and negative

variable C1${dir} equal 0.5*(${C1neg}+${C1pos})
variable C14 equal 0.5*(${C1neg}+${C1pos})
variable C14 equal 0.5*(-29.5833372761028+${C1pos})
variable C14 equal 0.5*(-29.5833372761028+37.7811477476314)
variable C2${dir} equal 0.5*(${C2neg}+${C2pos})
variable C24 equal 0.5*(${C2neg}+${C2pos})
variable C24 equal 0.5*(-5.12210035413955+${C2pos})
variable C24 equal 0.5*(-5.12210035413955+14.4076768418547)
variable C3${dir} equal 0.5*(${C3neg}+${C3pos})
variable C34 equal 0.5*(${C3neg}+${C3pos})
variable C34 equal 0.5*(-7.3453642565434+${C3pos})
variable C34 equal 0.5*(-7.3453642565434+19.3868453502125)
variable C4${dir} equal 0.5*(${C4neg}+${C4pos})
variable C44 equal 0.5*(${C4neg}+${C4pos})
variable C44 equal 0.5*(24.5839662335493+${C4pos})
variable C44 equal 0.5*(24.5839662335493+-0.953326046029895)
variable C5${dir} equal 0.5*(${C5neg}+${C5pos})
variable C54 equal 0.5*(${C5neg}+${C5pos})
variable C54 equal 0.5*(11.4347603724838+${C5pos})
variable C54 equal 0.5*(11.4347603724838+-11.1209025988354)
variable C6${dir} equal 0.5*(${C6neg}+${C6pos})
variable C64 equal 0.5*(${C6neg}+${C6pos})
variable C64 equal 0.5*(-12.43105731701+${C6pos})
variable C64 equal 0.5*(-12.43105731701+9.98282489512985)

# Delete dir to make sure it is not reused

variable dir delete

# uxz Perturbation

variable dir equal 5
include ./input/displace_333-EXP-27-vasp.mod
if "${dir} == 1" then    "variable len0 equal ${lx0}"
if "${dir} == 2" then    "variable len0 equal ${ly0}"
if "${dir} == 3" then    "variable len0 equal ${lz0}"
if "${dir} == 4" then    "variable len0 equal ${lz0}"
if "${dir} == 5" then    "variable len0 equal ${lz0}"
variable len0 equal ${lz0}
variable len0 equal 16.9057879317147
if "${dir} == 6" then    "variable len0 equal ${ly0}"

# Reset box and simulation parameters

clear
OMP_NUM_THREADS environment is not set. Defaulting to 1 thread.
  using 1 OpenMP thread(s) per MPI task
box tilt large

The 'box' command has been removed and will be ignored

read_restart restart_333-EXP-27-vasp.equil
Reading restart file ...
  restart file = 10 Sep 2025, LAMMPS = 10 Sep 2025
  restoring atom style full from restart
  triclinic box = (-0.14250308 -0.16633729 -0.20388747) to (15.287226 13.194642 16.7019) with tilt (-7.8939615 -0.65236226 0.5948275)
WARNING: Triclinic box skew is large. LAMMPS will run inefficiently. (src/domain.cpp:221)
  1 by 1 by 1 MPI processor grid
  restoring pair style lj/cut from restart
  restoring bond style harmonic from restart
  restoring angle style hybrid from restart
  restoring dihedral style harmonic from restart
  295 atoms
  315 bonds
  599 angles
  759 dihedrals
Finding 1-2 1-3 1-4 neighbors ...
  special bond factors lj:    0        0        1       
  special bond factors coul:  0        0        1       
     4 = max # of 1-2 neighbors
     8 = max # of 1-3 neighbors
    12 = max # of special neighbors
  special bonds CPU = 0.000 seconds
  read_restart CPU = 0.001 seconds
include ./input/angles_333-EXP-27-vasp.mod
angle_style hybrid fourier cosine/periodic
angle_coeff 1 fourier 157.882480        0.343737        0.374972        0.281246
angle_coeff 2 fourier 221.735285        0.343737        0.374972        0.281246
angle_coeff 3 fourier 83.380072        0.343737        0.374972        0.281246
angle_coeff 4 fourier 58.020602        0.343737        0.374972        0.281246
angle_coeff 5 fourier 114.246973        0.343737        0.374972        0.281246
angle_coeff 6 fourier 32.417871        0.343737        0.374972        0.281246
angle_coeff 7 fourier 90.420412        0.343737        0.374972        0.281246
angle_coeff 8 fourier 75.498766        0.343737        0.374972        0.281246
angle_coeff 9 cosine/periodic 88.853997              -1               3

# Negative deformation

variable delta equal -${up}*${len0}
variable delta equal -0.02*${len0}
variable delta equal -0.02*16.9057879317147
variable deltaxy equal -${up}*xy
variable deltaxy equal -0.02*xy
variable deltaxz equal -${up}*xz
variable deltaxz equal -0.02*xz
variable deltayz equal -${up}*yz
variable deltayz equal -0.02*yz
if "${dir} == 1" then    "change_box all x delta 0 ${delta} xy delta ${deltaxy} xz delta ${deltaxz} remap units box"
if "${dir} == 2" then    "change_box all y delta 0 ${delta} yz delta ${deltayz} remap units box"
if "${dir} == 3" then    "change_box all z delta 0 ${delta} remap units box"
if "${dir} == 4" then    "change_box all yz delta ${delta} remap units box"
if "${dir} == 5" then    "change_box all xz delta ${delta} remap units box"
change_box all xz delta ${delta} remap units box
change_box all xz delta -0.338115758634294 remap units box
Changing box ...
WARNING: Triclinic box skew is large. LAMMPS will run inefficiently. (src/domain.cpp:221)
  triclinic box = (-0.14250308 -0.16633729 -0.20388747) to (15.287226 13.194642 16.7019) with tilt (-7.8939615 -0.99047802 0.5948275)
if "${dir} == 6" then    "change_box all xy delta ${delta} remap units box"

# Relax atoms positions

minimize ${etol} ${ftol} ${maxiter} ${maxeval}
minimize 0 ${ftol} ${maxiter} ${maxeval}
minimize 0 1e-10 ${maxiter} ${maxeval}
minimize 0 1e-10 100000 ${maxeval}
minimize 0 1e-10 100000 100000
Generated 6 of 6 mixed pair_coeff terms from arithmetic mixing rule
Neighbor list info ...
  update: every = 1 steps, delay = 0 steps, check = yes
  max neighbors/atom: 2000, page size: 100000
  master list distance cutoff = 7
  ghost atom cutoff = 7
  binsize = 3.5, bins = 7 4 5
  1 neighbor lists, perpetual/occasional/extra = 1 0 0
  (1) pair lj/cut, perpetual
      attributes: half, newton on
      pair build: half/bin/newton/tri
      stencil: half/bin/3d/tri
      bin: standard
WARNING: Inconsistent image flags
For more information see https://docs.lammps.org/err0027 (src/domain.cpp:1052)
Per MPI rank memory allocation (min/avg/max) = 17.49 | 17.49 | 17.49 Mbytes
   Step          Temp          E_pair         E_mol          TotEng         Press     
    250315   311.28685     -367.99966      339.176        243.97511      2996.4164    
    250347   311.28685     -384.86636      270.49947      158.43189     -748.82283    
Loop time of 0.0169965 on 1 procs for 32 steps with 295 atoms

100.0% CPU use with 1 MPI tasks x 1 OpenMP threads

Minimization stats:
  Stopping criterion = linesearch alpha is zero
  Energy initial, next-to-last, final = 
     -28.8236567464874  -114.366884459384  -114.366884459384
  Force two-norm initial, final = 154.24091 17.963881
  Force max component initial, final = 20.975137 2.3620993
  Final line search alpha, max atom move = 2.9310238e-11 6.9233693e-11
  Iterations, force evaluations = 32 120

MPI task timing breakdown:
Section |  min time  |  avg time  |  max time  |%varavg| %total
---------------------------------------------------------------
Pair    | 0.012459   | 0.012459   | 0.012459   |   0.0 | 73.30
Bond    | 0.0037436  | 0.0037436  | 0.0037436  |   0.0 | 22.03
Neigh   | 0          | 0          | 0          |   0.0 |  0.00
Comm    | 0.00047235 | 0.00047235 | 0.00047235 |   0.0 |  2.78
Output  | 0          | 0          | 0          |   0.0 |  0.00
Modify  | 0          | 0          | 0          |   0.0 |  0.00
Other   |            | 0.0003215  |            |       |  1.89

Nlocal:            295 ave         295 max         295 min
Histogram: 1 0 0 0 0 0 0 0 0 0
Nghost:           1995 ave        1995 max        1995 min
Histogram: 1 0 0 0 0 0 0 0 0 0
Neighs:          16941 ave       16941 max       16941 min
Histogram: 1 0 0 0 0 0 0 0 0 0

Total # of neighbors = 16941
Ave neighs/atom = 57.427119
Ave special neighs/atom = 6.1966102
Neighbor list builds = 0
Dangerous builds = 0

# Obtain new stress tensor

variable tmp equal pxx
variable pxx1 equal ${tmp}
variable pxx1 equal -3989.96796522402
variable tmp equal pyy
variable pyy1 equal ${tmp}
variable pyy1 equal 1494.36334611687
variable tmp equal pzz
variable pzz1 equal ${tmp}
variable pzz1 equal 249.136123804509
variable tmp equal pxy
variable pxy1 equal ${tmp}
variable pxy1 equal 2830.95373450141
variable tmp equal pxz
variable pxz1 equal ${tmp}
variable pxz1 equal 6145.11234140127
variable tmp equal pyz
variable pyz1 equal ${tmp}
variable pyz1 equal 3489.74516036838

# Compute elastic constant from pressure tensor

variable C1neg equal ${d1}
variable C1neg equal -35.8415225079082
variable C2neg equal ${d2}
variable C2neg equal -8.89610477290145
variable C3neg equal ${d3}
variable C3neg equal -15.4109993416094
variable C4neg equal ${d4}
variable C4neg equal 13.725545237135
variable C5neg equal ${d5}
variable C5neg equal 26.5334984716747
variable C6neg equal ${d6}
variable C6neg equal -10.1270427913928

# Reset box and simulation parameters

clear
OMP_NUM_THREADS environment is not set. Defaulting to 1 thread.
  using 1 OpenMP thread(s) per MPI task
box tilt large

The 'box' command has been removed and will be ignored

read_restart restart_333-EXP-27-vasp.equil
Reading restart file ...
  restart file = 10 Sep 2025, LAMMPS = 10 Sep 2025
  restoring atom style full from restart
  triclinic box = (-0.14250308 -0.16633729 -0.20388747) to (15.287226 13.194642 16.7019) with tilt (-7.8939615 -0.65236226 0.5948275)
WARNING: Triclinic box skew is large. LAMMPS will run inefficiently. (src/domain.cpp:221)
  1 by 1 by 1 MPI processor grid
  restoring pair style lj/cut from restart
  restoring bond style harmonic from restart
  restoring angle style hybrid from restart
  restoring dihedral style harmonic from restart
  295 atoms
  315 bonds
  599 angles
  759 dihedrals
Finding 1-2 1-3 1-4 neighbors ...
  special bond factors lj:    0        0        1       
  special bond factors coul:  0        0        1       
     4 = max # of 1-2 neighbors
     8 = max # of 1-3 neighbors
    12 = max # of special neighbors
  special bonds CPU = 0.000 seconds
  read_restart CPU = 0.001 seconds
include ./input/angles_333-EXP-27-vasp.mod
angle_style hybrid fourier cosine/periodic
angle_coeff 1 fourier 157.882480        0.343737        0.374972        0.281246
angle_coeff 2 fourier 221.735285        0.343737        0.374972        0.281246
angle_coeff 3 fourier 83.380072        0.343737        0.374972        0.281246
angle_coeff 4 fourier 58.020602        0.343737        0.374972        0.281246
angle_coeff 5 fourier 114.246973        0.343737        0.374972        0.281246
angle_coeff 6 fourier 32.417871        0.343737        0.374972        0.281246
angle_coeff 7 fourier 90.420412        0.343737        0.374972        0.281246
angle_coeff 8 fourier 75.498766        0.343737        0.374972        0.281246
angle_coeff 9 cosine/periodic 88.853997              -1               3

# Positive deformation

variable delta equal ${up}*${len0}
variable delta equal 0.02*${len0}
variable delta equal 0.02*16.9057879317147
variable deltaxy equal ${up}*xy
variable deltaxy equal 0.02*xy
variable deltaxz equal ${up}*xz
variable deltaxz equal 0.02*xz
variable deltayz equal ${up}*yz
variable deltayz equal 0.02*yz
if "${dir} == 1" then    "change_box all x delta 0 ${delta} xy delta ${deltaxy} xz delta ${deltaxz} remap units box"
if "${dir} == 2" then    "change_box all y delta 0 ${delta} yz delta ${deltayz} remap units box"
if "${dir} == 3" then    "change_box all z delta 0 ${delta} remap units box"
if "${dir} == 4" then    "change_box all yz delta ${delta} remap units box"
if "${dir} == 5" then    "change_box all xz delta ${delta} remap units box"
change_box all xz delta ${delta} remap units box
change_box all xz delta 0.338115758634294 remap units box
Changing box ...
WARNING: Triclinic box skew is large. LAMMPS will run inefficiently. (src/domain.cpp:221)
  triclinic box = (-0.14250308 -0.16633729 -0.20388747) to (15.287226 13.194642 16.7019) with tilt (-7.8939615 -0.3142465 0.5948275)
if "${dir} == 6" then    "change_box all xy delta ${delta} remap units box"

# Relax atoms positions

minimize ${etol} ${ftol} ${maxiter} ${maxeval}
minimize 0 ${ftol} ${maxiter} ${maxeval}
minimize 0 1e-10 ${maxiter} ${maxeval}
minimize 0 1e-10 100000 ${maxeval}
minimize 0 1e-10 100000 100000
Generated 6 of 6 mixed pair_coeff terms from arithmetic mixing rule
Neighbor list info ...
  update: every = 1 steps, delay = 0 steps, check = yes
  max neighbors/atom: 2000, page size: 100000
  master list distance cutoff = 7
  ghost atom cutoff = 7
  binsize = 3.5, bins = 7 4 5
  1 neighbor lists, perpetual/occasional/extra = 1 0 0
  (1) pair lj/cut, perpetual
      attributes: half, newton on
      pair build: half/bin/newton/tri
      stencil: half/bin/3d/tri
      bin: standard
WARNING: Inconsistent image flags
For more information see https://docs.lammps.org/err0027 (src/domain.cpp:1052)
Per MPI rank memory allocation (min/avg/max) = 17.49 | 17.49 | 17.49 Mbytes
   Step          Temp          E_pair         E_mol          TotEng         Press     
    250315   311.28685     -368.87512      337.05485      240.9785       3119.9472    
    250379   311.28685     -387.95385      261.25017      146.09509     -665.73279    
Loop time of 0.0270728 on 1 procs for 64 steps with 295 atoms

100.0% CPU use with 1 MPI tasks x 1 OpenMP threads

Minimization stats:
  Stopping criterion = linesearch alpha is zero
  Energy initial, next-to-last, final = 
     -31.8202672976659  -126.703679162301  -126.703679162301
  Force two-norm initial, final = 154.98697 10.551598
  Force max component initial, final = 16.229931 1.4344334
  Final line search alpha, max atom move = 6.1562292e-11 8.8307009e-11
  Iterations, force evaluations = 64 181

MPI task timing breakdown:
Section |  min time  |  avg time  |  max time  |%varavg| %total
---------------------------------------------------------------
Pair    | 0.018606   | 0.018606   | 0.018606   |   0.0 | 68.72
Bond    | 0.0054484  | 0.0054484  | 0.0054484  |   0.0 | 20.13
Neigh   | 0.0017498  | 0.0017498  | 0.0017498  |   0.0 |  6.46
Comm    | 0.00072027 | 0.00072027 | 0.00072027 |   0.0 |  2.66
Output  | 0          | 0          | 0          |   0.0 |  0.00
Modify  | 0          | 0          | 0          |   0.0 |  0.00
Other   |            | 0.0005487  |            |       |  2.03

Nlocal:            295 ave         295 max         295 min
Histogram: 1 0 0 0 0 0 0 0 0 0
Nghost:           1979 ave        1979 max        1979 min
Histogram: 1 0 0 0 0 0 0 0 0 0
Neighs:          16913 ave       16913 max       16913 min
Histogram: 1 0 0 0 0 0 0 0 0 0

Total # of neighbors = 16913
Ave neighs/atom = 57.332203
Ave special neighs/atom = 6.1966102
Neighbor list builds = 1
Dangerous builds = 0

# Obtain new stress tensor

variable tmp equal pe
variable e1 equal ${tmp}
variable e1 equal -126.703679162301
variable tmp equal press
variable p1 equal ${tmp}
variable p1 equal -665.732790043635
variable tmp equal pxx
variable pxx1 equal ${tmp}
variable pxx1 equal -3397.97287960935
variable tmp equal pyy
variable pyy1 equal ${tmp}
variable pyy1 equal 567.253704740063
variable tmp equal pzz
variable pzz1 equal ${tmp}
variable pzz1 equal 833.520804738389
variable tmp equal pxy
variable pxy1 equal ${tmp}
variable pxy1 equal 2192.34942339591
variable tmp equal pxz
variable pxz1 equal ${tmp}
variable pxz1 equal 971.622027316011
variable tmp equal pyz
variable pyz1 equal ${tmp}
variable pyz1 equal 3381.02214921649

# Compute elastic constant from pressure tensor

variable C1pos equal ${d1}
variable C1pos equal 32.8815470798349
variable C2pos equal ${d2}
variable C2pos equal 13.5316529797855
variable C3pos equal ${d3}
variable C3pos equal 12.48907593694
variable C4pos equal ${d4}
variable C4pos equal -13.1819301813755
variable C5pos equal ${d5}
variable C5pos equal -0.66604690124844
variable C6pos equal ${d6}
variable C6pos equal 13.3200643469203

# Combine positive and negative

variable C1${dir} equal 0.5*(${C1neg}+${C1pos})
variable C15 equal 0.5*(${C1neg}+${C1pos})
variable C15 equal 0.5*(-35.8415225079082+${C1pos})
variable C15 equal 0.5*(-35.8415225079082+32.8815470798349)
variable C2${dir} equal 0.5*(${C2neg}+${C2pos})
variable C25 equal 0.5*(${C2neg}+${C2pos})
variable C25 equal 0.5*(-8.89610477290145+${C2pos})
variable C25 equal 0.5*(-8.89610477290145+13.5316529797855)
variable C3${dir} equal 0.5*(${C3neg}+${C3pos})
variable C35 equal 0.5*(${C3neg}+${C3pos})
variable C35 equal 0.5*(-15.4109993416094+${C3pos})
variable C35 equal 0.5*(-15.4109993416094+12.48907593694)
variable C4${dir} equal 0.5*(${C4neg}+${C4pos})
variable C45 equal 0.5*(${C4neg}+${C4pos})
variable C45 equal 0.5*(13.725545237135+${C4pos})
variable C45 equal 0.5*(13.725545237135+-13.1819301813755)
variable C5${dir} equal 0.5*(${C5neg}+${C5pos})
variable C55 equal 0.5*(${C5neg}+${C5pos})
variable C55 equal 0.5*(26.5334984716747+${C5pos})
variable C55 equal 0.5*(26.5334984716747+-0.66604690124844)
variable C6${dir} equal 0.5*(${C6neg}+${C6pos})
variable C65 equal 0.5*(${C6neg}+${C6pos})
variable C65 equal 0.5*(-10.1270427913928+${C6pos})
variable C65 equal 0.5*(-10.1270427913928+13.3200643469203)

# Delete dir to make sure it is not reused

variable dir delete

# uxy Perturbation

variable dir equal 6
include ./input/displace_333-EXP-27-vasp.mod
if "${dir} == 1" then    "variable len0 equal ${lx0}"
if "${dir} == 2" then    "variable len0 equal ${ly0}"
if "${dir} == 3" then    "variable len0 equal ${lz0}"
if "${dir} == 4" then    "variable len0 equal ${lz0}"
if "${dir} == 5" then    "variable len0 equal ${lz0}"
if "${dir} == 6" then    "variable len0 equal ${ly0}"
variable len0 equal ${ly0}
variable len0 equal 13.3609795753377

# Reset box and simulation parameters

clear
OMP_NUM_THREADS environment is not set. Defaulting to 1 thread.
  using 1 OpenMP thread(s) per MPI task
box tilt large

The 'box' command has been removed and will be ignored

read_restart restart_333-EXP-27-vasp.equil
Reading restart file ...
  restart file = 10 Sep 2025, LAMMPS = 10 Sep 2025
  restoring atom style full from restart
  triclinic box = (-0.14250308 -0.16633729 -0.20388747) to (15.287226 13.194642 16.7019) with tilt (-7.8939615 -0.65236226 0.5948275)
WARNING: Triclinic box skew is large. LAMMPS will run inefficiently. (src/domain.cpp:221)
  1 by 1 by 1 MPI processor grid
  restoring pair style lj/cut from restart
  restoring bond style harmonic from restart
  restoring angle style hybrid from restart
  restoring dihedral style harmonic from restart
  295 atoms
  315 bonds
  599 angles
  759 dihedrals
Finding 1-2 1-3 1-4 neighbors ...
  special bond factors lj:    0        0        1       
  special bond factors coul:  0        0        1       
     4 = max # of 1-2 neighbors
     8 = max # of 1-3 neighbors
    12 = max # of special neighbors
  special bonds CPU = 0.000 seconds
  read_restart CPU = 0.001 seconds
include ./input/angles_333-EXP-27-vasp.mod
angle_style hybrid fourier cosine/periodic
angle_coeff 1 fourier 157.882480        0.343737        0.374972        0.281246
angle_coeff 2 fourier 221.735285        0.343737        0.374972        0.281246
angle_coeff 3 fourier 83.380072        0.343737        0.374972        0.281246
angle_coeff 4 fourier 58.020602        0.343737        0.374972        0.281246
angle_coeff 5 fourier 114.246973        0.343737        0.374972        0.281246
angle_coeff 6 fourier 32.417871        0.343737        0.374972        0.281246
angle_coeff 7 fourier 90.420412        0.343737        0.374972        0.281246
angle_coeff 8 fourier 75.498766        0.343737        0.374972        0.281246
angle_coeff 9 cosine/periodic 88.853997              -1               3

# Negative deformation

variable delta equal -${up}*${len0}
variable delta equal -0.02*${len0}
variable delta equal -0.02*13.3609795753377
variable deltaxy equal -${up}*xy
variable deltaxy equal -0.02*xy
variable deltaxz equal -${up}*xz
variable deltaxz equal -0.02*xz
variable deltayz equal -${up}*yz
variable deltayz equal -0.02*yz
if "${dir} == 1" then    "change_box all x delta 0 ${delta} xy delta ${deltaxy} xz delta ${deltaxz} remap units box"
if "${dir} == 2" then    "change_box all y delta 0 ${delta} yz delta ${deltayz} remap units box"
if "${dir} == 3" then    "change_box all z delta 0 ${delta} remap units box"
if "${dir} == 4" then    "change_box all yz delta ${delta} remap units box"
if "${dir} == 5" then    "change_box all xz delta ${delta} remap units box"
if "${dir} == 6" then    "change_box all xy delta ${delta} remap units box"
change_box all xy delta ${delta} remap units box
change_box all xy delta -0.267219591506754 remap units box
Changing box ...
WARNING: Triclinic box skew is large. LAMMPS will run inefficiently. (src/domain.cpp:221)
  triclinic box = (-0.14250308 -0.16633729 -0.20388747) to (15.287226 13.194642 16.7019) with tilt (-8.1611811 -0.65236226 0.5948275)

# Relax atoms positions

minimize ${etol} ${ftol} ${maxiter} ${maxeval}
minimize 0 ${ftol} ${maxiter} ${maxeval}
minimize 0 1e-10 ${maxiter} ${maxeval}
minimize 0 1e-10 100000 ${maxeval}
minimize 0 1e-10 100000 100000
Generated 6 of 6 mixed pair_coeff terms from arithmetic mixing rule
Neighbor list info ...
  update: every = 1 steps, delay = 0 steps, check = yes
  max neighbors/atom: 2000, page size: 100000
  master list distance cutoff = 7
  ghost atom cutoff = 7
  binsize = 3.5, bins = 7 4 5
  1 neighbor lists, perpetual/occasional/extra = 1 0 0
  (1) pair lj/cut, perpetual
      attributes: half, newton on
      pair build: half/bin/newton/tri
      stencil: half/bin/3d/tri
      bin: standard
WARNING: Inconsistent image flags
For more information see https://docs.lammps.org/err0027 (src/domain.cpp:1052)
Per MPI rank memory allocation (min/avg/max) = 17.49 | 17.49 | 17.49 Mbytes
   Step          Temp          E_pair         E_mol          TotEng         Press     
    250315   311.28685     -370.09704      344.51115      247.21288      2300.1399    
    250359   311.28685     -388.62938      270.18148      154.35087     -1463.6994    
Loop time of 0.0200072 on 1 procs for 44 steps with 295 atoms

100.0% CPU use with 1 MPI tasks x 1 OpenMP threads

Minimization stats:
  Stopping criterion = linesearch alpha is zero
  Energy initial, next-to-last, final = 
     -25.5858898489226   -118.44789906512   -118.44789906512
  Force two-norm initial, final = 162.85769 14.412223
  Force max component initial, final = 19.368841 1.8853527
  Final line search alpha, max atom move = 3.4022884e-11 6.4145135e-11
  Iterations, force evaluations = 44 143

MPI task timing breakdown:
Section |  min time  |  avg time  |  max time  |%varavg| %total
---------------------------------------------------------------
Pair    | 0.014711   | 0.014711   | 0.014711   |   0.0 | 73.53
Bond    | 0.0043307  | 0.0043307  | 0.0043307  |   0.0 | 21.65
Neigh   | 0          | 0          | 0          |   0.0 |  0.00
Comm    | 0.00055952 | 0.00055952 | 0.00055952 |   0.0 |  2.80
Output  | 0          | 0          | 0          |   0.0 |  0.00
Modify  | 0          | 0          | 0          |   0.0 |  0.00
Other   |            | 0.0004058  |            |       |  2.03

Nlocal:            295 ave         295 max         295 min
Histogram: 1 0 0 0 0 0 0 0 0 0
Nghost:           2009 ave        2009 max        2009 min
Histogram: 1 0 0 0 0 0 0 0 0 0
Neighs:          16953 ave       16953 max       16953 min
Histogram: 1 0 0 0 0 0 0 0 0 0

Total # of neighbors = 16953
Ave neighs/atom = 57.467797
Ave special neighs/atom = 6.1966102
Neighbor list builds = 0
Dangerous builds = 0

# Obtain new stress tensor

variable tmp equal pxx
variable pxx1 equal ${tmp}
variable pxx1 equal -4376.55964760374
variable tmp equal pyy
variable pyy1 equal ${tmp}
variable pyy1 equal -391.19213939256
variable tmp equal pzz
variable pzz1 equal ${tmp}
variable pzz1 equal 376.6535793319
variable tmp equal pxy
variable pxy1 equal ${tmp}
variable pxy1 equal 4760.94899642522
variable tmp equal pxz
variable pxz1 equal ${tmp}
variable pxz1 equal 3118.74564707222
variable tmp equal pyz
variable pyz1 equal ${tmp}
variable pyz1 equal 3077.3538564224

# Compute elastic constant from pressure tensor

variable C1neg equal ${d1}
variable C1neg equal -37.7744809198068
variable C2neg equal ${d2}
variable C2neg equal -18.3238822004486
variable C3neg equal ${d3}
variable C3neg equal -14.7734120639725
variable C4neg equal ${d4}
variable C4neg equal 11.6635887174051
variable C5neg equal ${d5}
variable C5neg equal 11.4016650000295
variable C6neg equal ${d6}
variable C6neg equal -0.47706648177375

# Reset box and simulation parameters

clear
OMP_NUM_THREADS environment is not set. Defaulting to 1 thread.
  using 1 OpenMP thread(s) per MPI task
box tilt large

The 'box' command has been removed and will be ignored

read_restart restart_333-EXP-27-vasp.equil
Reading restart file ...
  restart file = 10 Sep 2025, LAMMPS = 10 Sep 2025
  restoring atom style full from restart
  triclinic box = (-0.14250308 -0.16633729 -0.20388747) to (15.287226 13.194642 16.7019) with tilt (-7.8939615 -0.65236226 0.5948275)
WARNING: Triclinic box skew is large. LAMMPS will run inefficiently. (src/domain.cpp:221)
  1 by 1 by 1 MPI processor grid
  restoring pair style lj/cut from restart
  restoring bond style harmonic from restart
  restoring angle style hybrid from restart
  restoring dihedral style harmonic from restart
  295 atoms
  315 bonds
  599 angles
  759 dihedrals
Finding 1-2 1-3 1-4 neighbors ...
  special bond factors lj:    0        0        1       
  special bond factors coul:  0        0        1       
     4 = max # of 1-2 neighbors
     8 = max # of 1-3 neighbors
    12 = max # of special neighbors
  special bonds CPU = 0.000 seconds
  read_restart CPU = 0.001 seconds
include ./input/angles_333-EXP-27-vasp.mod
angle_style hybrid fourier cosine/periodic
angle_coeff 1 fourier 157.882480        0.343737        0.374972        0.281246
angle_coeff 2 fourier 221.735285        0.343737        0.374972        0.281246
angle_coeff 3 fourier 83.380072        0.343737        0.374972        0.281246
angle_coeff 4 fourier 58.020602        0.343737        0.374972        0.281246
angle_coeff 5 fourier 114.246973        0.343737        0.374972        0.281246
angle_coeff 6 fourier 32.417871        0.343737        0.374972        0.281246
angle_coeff 7 fourier 90.420412        0.343737        0.374972        0.281246
angle_coeff 8 fourier 75.498766        0.343737        0.374972        0.281246
angle_coeff 9 cosine/periodic 88.853997              -1               3

# Positive deformation

variable delta equal ${up}*${len0}
variable delta equal 0.02*${len0}
variable delta equal 0.02*13.3609795753377
variable deltaxy equal ${up}*xy
variable deltaxy equal 0.02*xy
variable deltaxz equal ${up}*xz
variable deltaxz equal 0.02*xz
variable deltayz equal ${up}*yz
variable deltayz equal 0.02*yz
if "${dir} == 1" then    "change_box all x delta 0 ${delta} xy delta ${deltaxy} xz delta ${deltaxz} remap units box"
if "${dir} == 2" then    "change_box all y delta 0 ${delta} yz delta ${deltayz} remap units box"
if "${dir} == 3" then    "change_box all z delta 0 ${delta} remap units box"
if "${dir} == 4" then    "change_box all yz delta ${delta} remap units box"
if "${dir} == 5" then    "change_box all xz delta ${delta} remap units box"
if "${dir} == 6" then    "change_box all xy delta ${delta} remap units box"
change_box all xy delta ${delta} remap units box
change_box all xy delta 0.267219591506754 remap units box
Changing box ...
WARNING: Triclinic box skew is large. LAMMPS will run inefficiently. (src/domain.cpp:221)
  triclinic box = (-0.14250308 -0.16633729 -0.20388747) to (15.287226 13.194642 16.7019) with tilt (-7.6267419 -0.65236226 0.5948275)

# Relax atoms positions

minimize ${etol} ${ftol} ${maxiter} ${maxeval}
minimize 0 ${ftol} ${maxiter} ${maxeval}
minimize 0 1e-10 ${maxiter} ${maxeval}
minimize 0 1e-10 100000 ${maxeval}
minimize 0 1e-10 100000 100000
Generated 6 of 6 mixed pair_coeff terms from arithmetic mixing rule
Neighbor list info ...
  update: every = 1 steps, delay = 0 steps, check = yes
  max neighbors/atom: 2000, page size: 100000
  master list distance cutoff = 7
  ghost atom cutoff = 7
  binsize = 3.5, bins = 7 4 5
  1 neighbor lists, perpetual/occasional/extra = 1 0 0
  (1) pair lj/cut, perpetual
      attributes: half, newton on
      pair build: half/bin/newton/tri
      stencil: half/bin/3d/tri
      bin: standard
WARNING: Inconsistent image flags
For more information see https://docs.lammps.org/err0027 (src/domain.cpp:1052)
Per MPI rank memory allocation (min/avg/max) = 17.49 | 17.49 | 17.49 Mbytes
   Step          Temp          E_pair         E_mol          TotEng         Press     
    250315   311.28685     -367.50187      331.01716      236.31405      3798.2011    
    250341   311.28685     -384.62878      264.68593      152.85591      290.91799    
Loop time of 0.0153791 on 1 procs for 26 steps with 295 atoms

100.0% CPU use with 1 MPI tasks x 1 OpenMP threads

Minimization stats:
  Stopping criterion = linesearch alpha is zero
  Energy initial, next-to-last, final = 
     -36.4847163603548  -119.942858125838  -119.942858125838
  Force two-norm initial, final = 158.82501 22.465416
  Force max component initial, final = 17.291963 3.1988152
  Final line search alpha, max atom move = 1.9950455e-11 6.3817818e-11
  Iterations, force evaluations = 26 108

MPI task timing breakdown:
Section |  min time  |  avg time  |  max time  |%varavg| %total
---------------------------------------------------------------
Pair    | 0.011285   | 0.011285   | 0.011285   |   0.0 | 73.38
Bond    | 0.0033474  | 0.0033474  | 0.0033474  |   0.0 | 21.77
Neigh   | 0          | 0          | 0          |   0.0 |  0.00
Comm    | 0.00044835 | 0.00044835 | 0.00044835 |   0.0 |  2.92
Output  | 0          | 0          | 0          |   0.0 |  0.00
Modify  | 0          | 0          | 0          |   0.0 |  0.00
Other   |            | 0.0002982  |            |       |  1.94

Nlocal:            295 ave         295 max         295 min
Histogram: 1 0 0 0 0 0 0 0 0 0
Nghost:           1969 ave        1969 max        1969 min
Histogram: 1 0 0 0 0 0 0 0 0 0
Neighs:          16959 ave       16959 max       16959 min
Histogram: 1 0 0 0 0 0 0 0 0 0

Total # of neighbors = 16959
Ave neighs/atom = 57.488136
Ave special neighs/atom = 6.1966102
Neighbor list builds = 0
Dangerous builds = 0

# Obtain new stress tensor

variable tmp equal pe
variable e1 equal ${tmp}
variable e1 equal -119.942858125838
variable tmp equal press
variable p1 equal ${tmp}
variable p1 equal 290.91799310828
variable tmp equal pxx
variable pxx1 equal ${tmp}
variable pxx1 equal -2799.82404859185
variable tmp equal pyy
variable pyy1 equal ${tmp}
variable pyy1 equal 2498.78910477502
variable tmp equal pzz
variable pzz1 equal ${tmp}
variable pzz1 equal 1173.78892314168
variable tmp equal pxy
variable pxy1 equal ${tmp}
variable pxy1 equal 468.699941484201
variable tmp equal pxz
variable pxz1 equal ${tmp}
variable pxz1 equal 2584.505637232
variable tmp equal pyz
variable pyz1 equal ${tmp}
variable pyz1 equal 3716.30083361717

# Compute elastic constant from pressure tensor

variable C1pos equal ${d1}
variable C1pos equal 29.8908029247474
variable C2pos equal ${d2}
variable C2pos equal 3.8739759796107
variable C3pos equal ${d3}
variable C3pos equal 10.7877353449235
variable C4pos equal ${d4}
variable C4pos equal -14.8583236033789
variable C5pos equal ${d5}
variable C5pos equal -8.73046495082839
variable C6pos equal ${d6}
variable C6pos equal 21.9383117564788

# Combine positive and negative

variable C1${dir} equal 0.5*(${C1neg}+${C1pos})
variable C16 equal 0.5*(${C1neg}+${C1pos})
variable C16 equal 0.5*(-37.7744809198068+${C1pos})
variable C16 equal 0.5*(-37.7744809198068+29.8908029247474)
variable C2${dir} equal 0.5*(${C2neg}+${C2pos})
variable C26 equal 0.5*(${C2neg}+${C2pos})
variable C26 equal 0.5*(-18.3238822004486+${C2pos})
variable C26 equal 0.5*(-18.3238822004486+3.8739759796107)
variable C3${dir} equal 0.5*(${C3neg}+${C3pos})
variable C36 equal 0.5*(${C3neg}+${C3pos})
variable C36 equal 0.5*(-14.7734120639725+${C3pos})
variable C36 equal 0.5*(-14.7734120639725+10.7877353449235)
variable C4${dir} equal 0.5*(${C4neg}+${C4pos})
variable C46 equal 0.5*(${C4neg}+${C4pos})
variable C46 equal 0.5*(11.6635887174051+${C4pos})
variable C46 equal 0.5*(11.6635887174051+-14.8583236033789)
variable C5${dir} equal 0.5*(${C5neg}+${C5pos})
variable C56 equal 0.5*(${C5neg}+${C5pos})
variable C56 equal 0.5*(11.4016650000295+${C5pos})
variable C56 equal 0.5*(11.4016650000295+-8.73046495082839)
variable C6${dir} equal 0.5*(${C6neg}+${C6pos})
variable C66 equal 0.5*(${C6neg}+${C6pos})
variable C66 equal 0.5*(-0.47706648177375+${C6pos})
variable C66 equal 0.5*(-0.47706648177375+21.9383117564788)

# Delete dir to make sure it is not reused

variable dir delete

# Output final values

variable C11all equal ${C11}
variable C11all equal 41.3083951999151
variable C22all equal ${C22}
variable C22all equal 34.0885542655975
variable C33all equal ${C33}
variable C33all equal 45.543782656673

variable C12all equal 0.5*(${C12}+${C21})
variable C12all equal 0.5*(13.1689897288151+${C21})
variable C12all equal 0.5*(13.1689897288151+13.3989097018159)
variable C13all equal 0.5*(${C13}+${C31})
variable C13all equal 0.5*(17.1616007362765+${C31})
variable C13all equal 0.5*(17.1616007362765+17.4768427974756)
variable C23all equal 0.5*(${C23}+${C32})
variable C23all equal 0.5*(15.5991781195343+${C32})
variable C23all equal 0.5*(15.5991781195343+15.8282456444993)

variable C44all equal ${C44}
variable C44all equal 11.8153200937597
variable C55all equal ${C55}
variable C55all equal 12.9337257852131
variable C66all equal ${C66}
variable C66all equal 10.7306226373525

variable C14all equal 0.5*(${C14}+${C41})
variable C14all equal 0.5*(4.0989052357643+${C41})
variable C14all equal 0.5*(4.0989052357643+4.44581662844188)
variable C15all equal 0.5*(${C15}+${C51})
variable C15all equal 0.5*(-1.47998771403665+${C51})
variable C15all equal 0.5*(-1.47998771403665+1.20663181089558)
variable C16all equal 0.5*(${C16}+${C61})
variable C16all equal 0.5*(-3.9418389975297+${C61})
variable C16all equal 0.5*(-3.9418389975297+-3.25644265129452)

variable C24all equal 0.5*(${C24}+${C42})
variable C24all equal 0.5*(4.64278824385758+${C42})
variable C24all equal 0.5*(4.64278824385758+4.73187182762588)
variable C25all equal 0.5*(${C25}+${C52})
variable C25all equal 0.5*(2.31777410344202+${C52})
variable C25all equal 0.5*(2.31777410344202+1.97655164062175)
variable C26all equal 0.5*(${C26}+${C62})
variable C26all equal 0.5*(-7.22495311041895+${C62})
variable C26all equal 0.5*(-7.22495311041895+-7.0128024731232)

variable C34all equal 0.5*(${C34}+${C43})
variable C34all equal 0.5*(6.02074054683455+${C43})
variable C34all equal 0.5*(6.02074054683455+5.97806831084073)
variable C35all equal 0.5*(${C35}+${C53})
variable C35all equal 0.5*(-1.4609617023347+${C53})
variable C35all equal 0.5*(-1.4609617023347+-0.2309891045156)
variable C36all equal 0.5*(${C36}+${C63})
variable C36all equal 0.5*(-1.9928383595245+${C63})
variable C36all equal 0.5*(-1.9928383595245+-1.21037056647597)

variable C45all equal 0.5*(${C45}+${C54})
variable C45all equal 0.5*(0.27180752787975+${C54})
variable C45all equal 0.5*(0.27180752787975+0.1569288868242)
variable C46all equal 0.5*(${C46}+${C64})
variable C46all equal 0.5*(-1.5973674429869+${C64})
variable C46all equal 0.5*(-1.5973674429869+-1.22411621094007)
variable C56all equal 0.5*(${C56}+${C65})
variable C56all equal 0.5*(1.33560002460055+${C65})
variable C56all equal 0.5*(1.33560002460055+1.59651077776375)

# Average moduli for cubic crystals

variable C11cubic equal (${C11all}+${C22all}+${C33all})/3.0
variable C11cubic equal (41.3083951999151+${C22all}+${C33all})/3.0
variable C11cubic equal (41.3083951999151+34.0885542655975+${C33all})/3.0
variable C11cubic equal (41.3083951999151+34.0885542655975+45.543782656673)/3.0
variable C12cubic equal (${C12all}+${C13all}+${C23all})/3.0
variable C12cubic equal (13.2839497153155+${C13all}+${C23all})/3.0
variable C12cubic equal (13.2839497153155+17.3192217668761+${C23all})/3.0
variable C12cubic equal (13.2839497153155+17.3192217668761+15.7137118820168)/3.0
variable C44cubic equal (${C44all}+${C55all}+${C66all})/3.0
variable C44cubic equal (11.8153200937597+${C55all}+${C66all})/3.0
variable C44cubic equal (11.8153200937597+12.9337257852131+${C66all})/3.0
variable C44cubic equal (11.8153200937597+12.9337257852131+10.7306226373525)/3.0

variable bulkmodulus equal (${C11cubic}+2*${C12cubic})/3.0
variable bulkmodulus equal (40.3135773740619+2*${C12cubic})/3.0
variable bulkmodulus equal (40.3135773740619+2*15.4389611214028)/3.0
variable shearmodulus1 equal ${C44cubic}
variable shearmodulus1 equal 11.8265561721084
variable shearmodulus2 equal (${C11cubic}-${C12cubic})/2.0
variable shearmodulus2 equal (40.3135773740619-${C12cubic})/2.0
variable shearmodulus2 equal (40.3135773740619-15.4389611214028)/2.0
variable poissonratio equal 1.0/(1.0+${C11cubic}/${C12cubic})
variable poissonratio equal 1.0/(1.0+40.3135773740619/${C12cubic})
variable poissonratio equal 1.0/(1.0+40.3135773740619/15.4389611214028)

print "Elastic Constant 1 1 = ${C11all}"
Elastic Constant 1 1 = 41.3083951999151
print "Elastic Constant 2 2 = ${C22all}"
Elastic Constant 2 2 = 34.0885542655975
print "Elastic Constant 3 3 = ${C33all}"
Elastic Constant 3 3 = 45.543782656673

print "Elastic Constant 1 2 = ${C12all}"
Elastic Constant 1 2 = 13.2839497153155
print "Elastic Constant 1 3 = ${C13all}"
Elastic Constant 1 3 = 17.3192217668761
print "Elastic Constant 2 3 = ${C23all}"
Elastic Constant 2 3 = 15.7137118820168

print "Elastic Constant 4 4 = ${C44all}"
Elastic Constant 4 4 = 11.8153200937597
print "Elastic Constant 5 5 = ${C55all}"
Elastic Constant 5 5 = 12.9337257852131
print "Elastic Constant 6 6 = ${C66all}"
Elastic Constant 6 6 = 10.7306226373525

print "Elastic Constant 1 4 = ${C14all}"
Elastic Constant 1 4 = 4.27236093210309
print "Elastic Constant 1 5 = ${C15all}"
Elastic Constant 1 5 = -0.136677951570535
print "Elastic Constant 1 6 = ${C16all}"
Elastic Constant 1 6 = -3.59914082441211

print "Elastic Constant 2 4 = ${C24all}"
Elastic Constant 2 4 = 4.68733003574173
print "Elastic Constant 2 5 = ${C25all}"
Elastic Constant 2 5 = 2.14716287203188
print "Elastic Constant 2 6 = ${C26all}"
Elastic Constant 2 6 = -7.11887779177107

print "Elastic Constant 3 4 = ${C34all}"
Elastic Constant 3 4 = 5.99940442883764
print "Elastic Constant 3 5 = ${C35all}"
Elastic Constant 3 5 = -0.84597540342515
print "Elastic Constant 3 6 = ${C36all}"
Elastic Constant 3 6 = -1.60160446300024

print "Elastic Constant 4 5 = ${C45all}"
Elastic Constant 4 5 = 0.214368207351975
print "Elastic Constant 4 6 = ${C46all}"
Elastic Constant 4 6 = -1.41074182696349
print "Elastic Constant 5 6 = ${C56all}"
Elastic Constant 5 6 = 1.46605540118215

print "Bulk Modulus = ${bulkmodulus} ${cunits}"
Bulk Modulus = 23.7304998722892 GPa
print "Shear Modulus 1 = ${shearmodulus1} ${cunits}"
Shear Modulus 1 = 11.8265561721084 GPa
print "Shear Modulus 2 = ${shearmodulus2} ${cunits}"
Shear Modulus 2 = 12.4373081263296 GPa
print "Poisson Ratio = ${poissonratio}"
Poisson Ratio = 0.276919428927146

variable rho equal density
print "density (g/cm^3) = ${rho}"
density (g/cm^3) = 1.50071817237169
Total wall time: 0:00:50
