units           real
atom_style      full
boundary        p p p

pair_style      lj/cut 5.000
bond_style      harmonic
angle_style     hybrid fourier cosine/periodic
dihedral_style  harmonic

dielectric      1.0
pair_modify     tail yes mix arithmetic
special_bonds   lj/coul 0.0 0.0 1.0
box tilt        large

The 'box' command has been removed and will be ignored

read_data       ./dat/data.333-RV-31-vasp
Reading data file ...
  triclinic box = (0 0 0) to (15.411447 12.402704 17.503439) with tilt (-7.202679 -1.826073 0.338403)
WARNING: Triclinic box skew is large. LAMMPS will run inefficiently. (src/domain.cpp:221)
  1 by 1 by 1 MPI processor grid
  reading atoms ...
  310 atoms
  scanning bonds ...
  4 = max bonds/atom
  scanning angles ...
  6 = max angles/atom
  scanning dihedrals ...
  30 = max dihedrals/atom
  triclinic box = (0 0 0) to (15.411447 12.402704 17.503439) with tilt (-7.202679 -1.826073 0.338403)
WARNING: Triclinic box skew is large. LAMMPS will run inefficiently. (src/domain.cpp:221)
  1 by 1 by 1 MPI processor grid
  reading bonds ...
  315 bonds
  reading angles ...
  584 angles
  reading dihedrals ...
  669 dihedrals
Finding 1-2 1-3 1-4 neighbors ...
  special bond factors lj:    0        0        1       
  special bond factors coul:  0        0        1       
     4 = max # of 1-2 neighbors
    10 = max # of 1-3 neighbors
    14 = max # of special neighbors
  special bonds CPU = 0.000 seconds
  read_data CPU = 0.009 seconds

#### Atom Groupings ####
group           1        id   21 33 86:87 152:160 182:184 233:235 243 281
21 atoms in group 1
group           fram     id   1:20 22:32 34:85 88:151 161:181 185:232 236:242 244:280 282:310
289 atoms in group fram
#### END Atom Groupings ####

compute am all property/atom mass
dump        atom_pos all extxyz 100 ./output/333-RV-31-vasp.lammpstrj
dump_modify atom_pos element Si H C O Si H C O mass yes
thermo          1000
thermo_style    custom step temp pe ke etotal press vol density

variable up equal 2e-2
variable cfac equal 1.0e-4
variable cunits string GPa

# Define minimization parameters
variable etol equal 0.0
variable ftol equal 1.0e-10
variable maxiter equal 100000
variable maxeval equal 100000
variable dmax equal 1.0e-2

variable temp equal 300.0
variable thermal_damp index 100.0
variable pressure_damp index 500.0

fix relax all box/relax aniso 0.0 vmax 0.001
unfix relax
minimize ${etol} ${ftol} ${maxiter} ${maxeval}
minimize 0 ${ftol} ${maxiter} ${maxeval}
minimize 0 1e-10 ${maxiter} ${maxeval}
minimize 0 1e-10 100000 ${maxeval}
minimize 0 1e-10 100000 100000
Generated 28 of 28 mixed pair_coeff terms from arithmetic mixing rule
Neighbor list info ...
  update: every = 1 steps, delay = 0 steps, check = yes
  max neighbors/atom: 2000, page size: 100000
  master list distance cutoff = 7
  ghost atom cutoff = 7
  binsize = 3.5, bins = 7 4 6
  1 neighbor lists, perpetual/occasional/extra = 1 0 0
  (1) pair lj/cut, perpetual
      attributes: half, newton on
      pair build: half/bin/newton/tri
      stencil: half/bin/3d/tri
      bin: standard
WARNING: Inconsistent image flags
For more information see https://docs.lammps.org/err0027 (src/domain.cpp:1052)
Per MPI rank memory allocation (min/avg/max) = 19.5 | 19.5 | 19.5 Mbytes
   Step          Temp          PotEng         KinEng         TotEng         Press          Volume        Density    
         0   0              592.25807      0              592.25807      59104.108      3345.6706      1.4592149    
        62   0             -202.66987      0             -202.66987      13292.444      3345.6706      1.4592149    
WARNING: Bond/angle/dihedral extent > half of periodic box length (src/domain.cpp:1174)
Loop time of 0.0375248 on 1 procs for 62 steps with 310 atoms

95.9% CPU use with 1 MPI tasks x 1 OpenMP threads

Minimization stats:
  Stopping criterion = linesearch alpha is zero
  Energy initial, next-to-last, final = 
      592.258073438472  -202.669873616383  -202.669873616383
  Force two-norm initial, final = 712.02758 19.718734
  Force max component initial, final = 97.958374 4.6626369
  Final line search alpha, max atom move = 1.9481091e-11 9.0833256e-11
  Iterations, force evaluations = 62 175

MPI task timing breakdown:
Section |  min time  |  avg time  |  max time  |%varavg| %total
---------------------------------------------------------------
Pair    | 0.0258     | 0.0258     | 0.0258     |   0.0 | 68.75
Bond    | 0.0057497  | 0.0057497  | 0.0057497  |   0.0 | 15.32
Neigh   | 0.0039044  | 0.0039044  | 0.0039044  |   0.0 | 10.40
Comm    | 0.00094572 | 0.00094572 | 0.00094572 |   0.0 |  2.52
Output  | 0          | 0          | 0          |   0.0 |  0.00
Modify  | 0          | 0          | 0          |   0.0 |  0.00
Other   |            | 0.001125   |            |       |  3.00

Nlocal:            310 ave         310 max         310 min
Histogram: 1 0 0 0 0 0 0 0 0 0
Nghost:           2166 ave        2166 max        2166 min
Histogram: 1 0 0 0 0 0 0 0 0 0
Neighs:          19461 ave       19461 max       19461 min
Histogram: 1 0 0 0 0 0 0 0 0 0

Total # of neighbors = 19461
Ave neighs/atom = 62.777419
Ave special neighs/atom = 5.8
Neighbor list builds = 2
Dangerous builds = 0

# Generating the full routine as described in the paper for UFF
fix nvt_relax   all nvt temp 300 300 ${thermal_damp}
fix nvt_relax   all nvt temp 300 300 100.0
run 100000      # 100 picoseconds
Generated 28 of 28 mixed pair_coeff terms from arithmetic mixing rule
WARNING: Inconsistent image flags
For more information see https://docs.lammps.org/err0027 (src/domain.cpp:1052)
WARNING: Bond/angle/dihedral extent > half of periodic box length (src/domain.cpp:1174)
Per MPI rank memory allocation (min/avg/max) = 19.43 | 19.43 | 19.43 Mbytes
   Step          Temp          PotEng         KinEng         TotEng         Press          Volume        Density    
        62   0             -202.66987      0             -202.66987      13292.444      3345.6706      1.4592149    
      1000   232.51151      1.6465302      214.15945      215.80598      28032.062      3345.6706      1.4592149    
      2000   300.67788      31.12543       276.94546      308.07089      30095.372      3345.6706      1.4592149    
      3000   318.00898     -0.62900737     292.90863      292.27962      24711.824      3345.6706      1.4592149    
      4000   304.15742      15.666556      280.15037      295.81693      20257.015      3345.6706      1.4592149    
      5000   296.10365      31.727873      272.73228      304.46016      21667.906      3345.6706      1.4592149    
      6000   294.88681      8.123611       271.61148      279.73509      16842.496      3345.6706      1.4592149    
      7000   304.3123       34.084791      280.29303      314.37782      14810.075      3345.6706      1.4592149    
      8000   291.81509      11.343967      268.78222      280.12618      14456.558      3345.6706      1.4592149    
      9000   329.25707      7.6212673      303.26891      310.89017      28280.872      3345.6706      1.4592149    
     10000   292.79526      49.839635      269.68502      319.52465      17877.089      3345.6706      1.4592149    
     11000   300.32474      11.982651      276.6202       288.60285      19161.741      3345.6706      1.4592149    
     12000   306.8669       17.013344      282.64599      299.65934      23810.371      3345.6706      1.4592149    
     13000   314.37027     -4.2813852      289.55712      285.27573      24184.199      3345.6706      1.4592149    
     14000   295.7252       26.330027      272.3837       298.71373      21873.392      3345.6706      1.4592149    
     15000   290.30892     -4.9071959      267.39493      262.48773      23059.182      3345.6706      1.4592149    
     16000   302.89076      17.308482      278.98368      296.29216      16454.928      3345.6706      1.4592149    
     17000   312.86985      24.938872      288.17513      313.114        22065.147      3345.6706      1.4592149    
     18000   302.16279     -0.47916491     278.31317      277.83401      22616.919      3345.6706      1.4592149    
     19000   327.14872      20.465836      301.32697      321.79281      23894.996      3345.6706      1.4592149    
     20000   293.81948      1.5887475      270.6284       272.21714      19979.965      3345.6706      1.4592149    
     21000   295.17344     -8.0693189      271.87549      263.80617      21916.178      3345.6706      1.4592149    
     22000   314.43727      12.822783      289.61883      302.44161      18861.795      3345.6706      1.4592149    
     23000   295.4296       9.781495       272.11143      281.89293      22537.087      3345.6706      1.4592149    
     24000   313.11818      16.916641      288.40386      305.3205       23736.115      3345.6706      1.4592149    
     25000   322.96131     -2.3156993      297.47007      295.15437      21346.013      3345.6706      1.4592149    
     26000   315.78739      7.986987       290.86239      298.84937      22375.235      3345.6706      1.4592149    
     27000   299.48678      34.93887       275.84838      310.78725      21269.903      3345.6706      1.4592149    
     28000   306.28219      9.7898331      282.10743      291.89726      14685.11       3345.6706      1.4592149    
     29000   310.252        20.154721      285.76391      305.91863      18733.602      3345.6706      1.4592149    
     30000   290.39343      10.183646      267.47277      277.65641      20339.711      3345.6706      1.4592149    
     31000   318.3021       17.056395      293.17861      310.23501      22511.092      3345.6706      1.4592149    
     32000   288.68546      16.411541      265.89961      282.31115      21216.693      3345.6706      1.4592149    
     33000   281.32229      3.0922         259.11761      262.20981      19106.333      3345.6706      1.4592149    
     34000   335.06048      37.851538      308.61426      346.4658       24213.695      3345.6706      1.4592149    
     35000   286.42936      18.14002       263.82158      281.9616       17435.985      3345.6706      1.4592149    
     36000   304.8073      -8.0606987      280.74895      272.68825      22968.983      3345.6706      1.4592149    
     37000   307.53023      41.164304      283.25696      324.42127      20083.376      3345.6706      1.4592149    
     38000   291.38822      6.8013974      268.38903      275.19043      18835.705      3345.6706      1.4592149    
     39000   330.88037      7.9315862      304.76408      312.69567      16276.687      3345.6706      1.4592149    
     40000   289.57314      20.064031      266.71722      286.78125      18197.981      3345.6706      1.4592149    
     41000   291.52601     -21.027197      268.51595      247.48876      19130.473      3345.6706      1.4592149    
     42000   301.34914     -5.0015741      277.56374      272.56217      20704.466      3345.6706      1.4592149    
     43000   310.9206       43.161676      286.37973      329.54141      22238.808      3345.6706      1.4592149    
     44000   296.2854      -8.5908553      272.89968      264.30882      27407.833      3345.6706      1.4592149    
     45000   302.47998      8.2753198      278.60533      286.88065      13668.703      3345.6706      1.4592149    
     46000   313.37858     -7.4217431      288.64371      281.22196      20335.203      3345.6706      1.4592149    
     47000   299.54143     -5.8478128      275.89872      270.05091      25724.694      3345.6706      1.4592149    
     48000   288.30337      36.749432      265.54767      302.29711      12625.479      3345.6706      1.4592149    
     49000   318.99817     -29.723927      293.81975      264.09582      24983.28       3345.6706      1.4592149    
     50000   305.67145      9.1566058      281.5449       290.7015       23157.643      3345.6706      1.4592149    
     51000   306.7208      -0.021782436    282.51142      282.48963      24857.794      3345.6706      1.4592149    
     52000   295.85013     -12.116623      272.49877      260.38214      17486.366      3345.6706      1.4592149    
     53000   287.85165      30.859649      265.1316       295.99125      23939.961      3345.6706      1.4592149    
     54000   273.72419     -1.4894277      252.11922      250.62979      22988.965      3345.6706      1.4592149    
     55000   299.38501     -1.3473192      275.75464      274.40732      21961.475      3345.6706      1.4592149    
     56000   304.27132      15.853299      280.25528      296.10857      15697.366      3345.6706      1.4592149    
     57000   294.65851     -0.38329997     271.40121      271.01791      22062.524      3345.6706      1.4592149    
     58000   320.7639      -11.45151       295.44611      283.9946       16780.201      3345.6706      1.4592149    
     59000   334.59333      9.4263447      308.18398      317.61033      20614.581      3345.6706      1.4592149    
     60000   284.77177      6.5396981      262.29482      268.83452      22651.346      3345.6706      1.4592149    
     61000   327.21148      15.366767      301.38478      316.75154      19775.005      3345.6706      1.4592149    
     62000   309.82312      12.884724      285.36888      298.2536       20154.678      3345.6706      1.4592149    
     63000   278.29389      8.357727       256.32824      264.68596      18576.778      3345.6706      1.4592149    
     64000   311.51109      8.4918005      286.92362      295.41542      17760.461      3345.6706      1.4592149    
     65000   305.77782      4.1309811      281.64287      285.77385      24420.517      3345.6706      1.4592149    
     66000   309.46383      16.998941      285.03794      302.03688      16635.781      3345.6706      1.4592149    
     67000   303.27614     -5.2790505      279.33865      274.0596       25701.053      3345.6706      1.4592149    
     68000   311.87345      26.824165      287.25737      314.08154      18389.643      3345.6706      1.4592149    
     69000   304.07638     -3.8912603      280.07572      276.18446      24429.372      3345.6706      1.4592149    
     70000   301.70966     -19.486978      277.89581      258.40883      20909.524      3345.6706      1.4592149    
     71000   296.78608      7.8327553      273.36084      281.1936       11048.596      3345.6706      1.4592149    
     72000   299.63253      8.2711361      275.98263      284.25377      18702.491      3345.6706      1.4592149    
     73000   309.32868      26.684566      284.91346      311.59802      17646.814      3345.6706      1.4592149    
     74000   298.41511     -6.2618041      274.8613       268.59949      22571.699      3345.6706      1.4592149    
     75000   290.43276      12.666141      267.509        280.17514      19254.559      3345.6706      1.4592149    
     76000   273.16148     -0.59921616     251.60093      251.00171      20436.642      3345.6706      1.4592149    
     77000   291.16648      0.89262517     268.1848       269.07742      17912.667      3345.6706      1.4592149    
     78000   299.05127      38.894229      275.44724      314.34147      18061.812      3345.6706      1.4592149    
     79000   306.60716      20.293673      282.40675      302.70042      16605.905      3345.6706      1.4592149    
     80000   313.83004      10.29423       289.05953      299.35376      15623.898      3345.6706      1.4592149    
     81000   331.20678     -6.4553311      305.06473      298.6094       11327.145      3345.6706      1.4592149    
     82000   324.05295     -17.9529        298.47555      280.52265      18037.557      3345.6706      1.4592149    
     83000   302.49561      40.426758      278.61972      319.04648      25533.96       3345.6706      1.4592149    
     84000   310.68785      10.033278      286.16535      296.19863      15034.746      3345.6706      1.4592149    
     85000   289.56081      16.348128      266.70586      283.05399      20788.652      3345.6706      1.4592149    
     86000   322.8629       39.39357       297.37943      336.773        17853.514      3345.6706      1.4592149    
     87000   303.15828      5.5425898      279.23009      284.77268      23318.89       3345.6706      1.4592149    
     88000   286.6853       10.531307      264.05731      274.58862      24008.388      3345.6706      1.4592149    
     89000   288.17273      13.039616      265.42734      278.46696      23951.399      3345.6706      1.4592149    
     90000   312.21121      22.387546      287.56848      309.95602      23917.488      3345.6706      1.4592149    
     91000   315.56532      11.534863      290.65785      302.19271      26207.175      3345.6706      1.4592149    
     92000   286.21177      18.522483      263.62116      282.14365      21404.867      3345.6706      1.4592149    
     93000   306.81922      14.276751      282.60207      296.87882      22132.73       3345.6706      1.4592149    
     94000   277.66668      4.6154481      255.75053      260.36598      19802.617      3345.6706      1.4592149    
     95000   297.11419      12.635998      273.66306      286.29906      24599.534      3345.6706      1.4592149    
     96000   326.62334      17.897176      300.84306      318.74023      20187.122      3345.6706      1.4592149    
     97000   266.49454      29.002082      245.4602       274.46229      19895.375      3345.6706      1.4592149    
     98000   312.43991      37.802646      287.77913      325.58177      16874.307      3345.6706      1.4592149    
     99000   309.15654      10.287226      284.75491      295.04213      24481.102      3345.6706      1.4592149    
    100000   283.66818      17.160936      261.27834      278.43928      23493.468      3345.6706      1.4592149    
    100062   307.55704     -5.1443052      283.28165      278.13735      17580.373      3345.6706      1.4592149    
WARNING: Bond/angle/dihedral extent > half of periodic box length (src/domain.cpp:1174)
Loop time of 20.855 on 1 procs for 100000 steps with 310 atoms

Performance: 414.290 ns/day, 0.058 hours/ns, 4795.018 timesteps/s, 1.486 Matom-step/s
99.7% CPU use with 1 MPI tasks x 1 OpenMP threads

MPI task timing breakdown:
Section |  min time  |  avg time  |  max time  |%varavg| %total
---------------------------------------------------------------
Pair    | 12.128     | 12.128     | 12.128     |   0.0 | 58.16
Bond    | 2.7946     | 2.7946     | 2.7946     |   0.0 | 13.40
Neigh   | 4.5101     | 4.5101     | 4.5101     |   0.0 | 21.63
Comm    | 0.53455    | 0.53455    | 0.53455    |   0.0 |  2.56
Output  | 0.45748    | 0.45748    | 0.45748    |   0.0 |  2.19
Modify  | 0.30437    | 0.30437    | 0.30437    |   0.0 |  1.46
Other   |            | 0.1256     |            |       |  0.60

Nlocal:            310 ave         310 max         310 min
Histogram: 1 0 0 0 0 0 0 0 0 0
Nghost:           2127 ave        2127 max        2127 min
Histogram: 1 0 0 0 0 0 0 0 0 0
Neighs:          19504 ave       19504 max       19504 min
Histogram: 1 0 0 0 0 0 0 0 0 0

Total # of neighbors = 19504
Ave neighs/atom = 62.916129
Ave special neighs/atom = 5.8
Neighbor list builds = 2145
Dangerous builds = 0
unfix           nvt_relax

fix npt_relax   all npt temp 300 300 ${thermal_damp} iso 0 0 ${pressure_damp}
fix npt_relax   all npt temp 300 300 100.0 iso 0 0 ${pressure_damp}
fix npt_relax   all npt temp 300 300 100.0 iso 0 0 500.0
run 100000      # 100 picoseconds
Generated 28 of 28 mixed pair_coeff terms from arithmetic mixing rule
WARNING: Inconsistent image flags
For more information see https://docs.lammps.org/err0027 (src/domain.cpp:1052)
WARNING: Bond/angle/dihedral extent > half of periodic box length (src/domain.cpp:1174)
Per MPI rank memory allocation (min/avg/max) = 19.45 | 19.45 | 19.45 Mbytes
   Step          Temp          PotEng         KinEng         TotEng         Press          Volume        Density    
    100062   307.55704     -5.1443052      283.28165      278.13735      17580.373      3345.6706      1.4592149    
    101000   320.04934      0.50878488     294.78794      295.29672      1259.7743      3774.0009      1.2936012    
    102000   299.53519      12.743346      275.89297      288.63632     -7498.2233      3814.1191      1.2799947    
    103000   290.58913      7.4412763      267.65302      275.0943       3916.9486      3843.591       1.27018      
    104000   277.13425     -19.080301      255.26013      236.17983      2555.8117      3826.9657      1.2756979    
    105000   298.95871      6.7435949      275.36199      282.10558      704.52306      3872.6897      1.260636     
    106000   287.53833     -17.103125      264.84301      247.73989     -1386.2647      3804.0896      1.2833694    
    107000   308.74419      23.917318      284.37511      308.29243     -3338.3827      3859.2319      1.2650321    
    108000   282.74913      3.9767795      260.43183      264.4086      -4166.3653      3800.9293      1.2844365    
    109000   321.29933      1.0970314      295.93927      297.0363       5337.894       3756.5078      1.2996252    
    110000   295.74493     -18.478584      272.40187      253.92329     -366.41121      3717.3937      1.3132998    
    111000   315.75463      1.8450432      290.83222      292.67726     -2211.1212      3865.6438      1.2629338    
    112000   287.59958     -22.789211      264.89943      242.11022      5206.0263      3770.8296      1.2946892    
    113000   312.33665     -17.105999      287.68401      270.57802      3153.853       3705.2582      1.3176011    
    114000   304.62296     -11.302209      280.57917      269.27696     -3721.0969      3841.1695      1.2709807    
    115000   304.77422     -30.828517      280.71848      249.88997      3219.9721      3819.485       1.2781965    
    116000   309.52168     -35.736923      285.09123      249.3543       1210.5144      3853.435       1.2669351    
    117000   277.88881     -1.4784979      255.95513      254.47663     -3026.8244      3825.8705      1.2760631    
    118000   299.24844      2.382895       275.62885      278.01175     -1235.0174      3837.692       1.2721324    
    119000   294.95341     -5.3630498      271.67283      266.30978      4802.1217      3843.8104      1.2701075    
    120000   291.42961      2.5517695      268.42716      270.97893      4101.4827      3761.294       1.2979715    
    121000   304.30245     -3.3421293      280.28395      276.94182      383.98251      3730.878       1.3085532    
    122000   266.64619     -27.541227      245.59989      218.05866     -831.85825      3838.5163      1.2718592    
    123000   321.71909     -11.508242      296.3259       284.81766      5725.417       3801.7636      1.2841546    
    124000   260.00543     -8.4747896      239.48328      231.00849     -2790.7291      3865.7719      1.262892     
    125000   305.58034     -10.462282      281.46098      270.9987       1943.5882      3854.8231      1.2664789    
    126000   290.24715     -24.251739      267.33803      243.08629      2751.5254      3840.5091      1.2711992    
    127000   318.48759     -28.81463       293.34946      264.53483      171.28843      3809.7468      1.2814637    
    128000   300.44799     -20.978431      276.73373      255.75529      1200.8745      3729.7952      1.308933     
    129000   293.32814     -5.0074184      270.17584      265.16842     -2997.209       3776.118       1.292876     
    130000   305.29144     -15.754812      281.19488      265.44007      4046.6281      3724.7721      1.3106983    
    131000   298.03237      18.531929      274.50877      293.04069     -196.14501      3807.0756      1.2823628    
    132000   312.5949      -25.240802      287.92188      262.68107     -1849.0626      3751.5454      1.3013443    
    133000   315.45281     -30.155843      290.55422      260.39837      2548.8863      3749.5632      1.3020322    
    134000   303.64067     -17.350635      279.67441      262.32377      1019.4329      3809.8687      1.2814227    
    135000   284.19525     -28.416155      261.7638       233.34765     -2654.6376      3845.9514      1.2694004    
    136000   300.64857     -24.166864      276.91847      252.75161     -4946.2482      3835.21        1.2729557    
    137000   323.14441     -31.190609      297.63872      266.44811      6158.8323      3850.9727      1.2677452    
    138000   295.01863     -18.244663      271.7329       253.48824      746.74489      3856.7729      1.2658387    
    139000   294.07769     -25.939773      270.86623      244.92646     -828.2363       3904.2845      1.2504346    
    140000   317.41766     -39.331639      292.36398      253.03234      4012.6924      3741.4043      1.3048716    
    141000   297.85037      5.7564517      274.34113      280.09758      5672.0857      3876.122       1.2595198    
    142000   298.93385     -15.422183      275.3391       259.91691      4948.6351      3804.3793      1.2832717    
    143000   296.56587     -1.2414182      273.15802      271.9166       3613.3808      3860.838       1.2645059    
    144000   313.39269     -25.229451      288.6567       263.42725     -6291.0642      3943.4074      1.2380289    
    145000   292.16363     -21.826424      269.10324      247.27682      4983.8132      3804.1064      1.2833638    
    146000   308.00269     -6.6997578      283.69214      276.99238     -1151.9649      3884.3432      1.256854     
    147000   282.36803     -40.315931      260.08081      219.76488      2142.0688      3822.3386      1.2772422    
    148000   309.01026     -2.5360755      284.62018      282.0841       1540.679       3888.4942      1.2555123    
    149000   296.59718      6.7346877      273.18686      279.92155      1907.4431      3882.8922      1.2573237    
    150000   298.38594     -7.0198874      274.83443      267.81454     -1536.9618      3853.5485      1.2668978    
    151000   298.84014     -1.4911965      275.25278      273.76159      1114.5392      3789.238       1.2883995    
    152000   304.99579     -17.061541      280.92257      263.86103     -4428.4301      3906.3192      1.2497832    
    153000   300.22512      16.48588       276.52844      293.01432      203.1695       3835.3408      1.2729122    
    154000   306.67741     -18.595082      282.47145      263.87637     -592.05369      3966.4744      1.2308291    
    155000   294.87759     -22.524096      271.60299      249.0789       3482.4036      3962.4862      1.232068     
    156000   314.78225     -28.122125      289.93658      261.81446     -3052.747       3903.9673      1.2505362    
    157000   288.61055     -14.044148      265.83061      251.78646     -767.07086      3925.1274      1.2437946    
    158000   317.96837     -20.132365      292.87122      272.73886     -1614.3559      3941.7685      1.2385436    
    159000   276.10518     -30.138197      254.31228      224.17409     -307.06439      3889.8334      1.25508      
    160000   298.77568     -15.885442      275.19341      259.30797     -1449.2933      3929.6036      1.2423778    
    161000   287.17163      4.0366162      264.50526      268.54188      3400.6312      3889.4801      1.255194     
    162000   301.04319     -37.249445      277.28194      240.0325      -2128.0428      3910.815       1.2483465    
    163000   301.61994     -15.732364      277.81317      262.0808      -2290.7078      4001.5137      1.2200513    
    164000   320.20724     -6.5095511      294.93338      288.42383     -1663.6708      4069.8088      1.1995778    
    165000   289.05966     -22.021908      266.24427      244.22236      2568.0726      4013.8072      1.2163146    
    166000   304.52627     -32.201101      280.49011      248.289        1918.0278      4007.3049      1.2182882    
    167000   291.69292     -25.71767       268.66969      242.95202      434.88096      4010.3202      1.2173722    
    168000   286.12041     -5.3442513      263.53701      258.19276     -113.03629      3954.2167      1.2346446    
    169000   307.74341     -20.603214      283.45332      262.8501       1090.7272      3920.812       1.2451636    
    170000   298.67774     -30.676851      275.1032       244.42635     -887.52313      3932.7963      1.2413692    
    171000   300.85169     -33.672529      277.10555      243.43303      732.66136      3898.3593      1.2523351    
    172000   313.73949     -32.242202      288.97612      256.73392      3773.2041      3937.8281      1.239783     
    173000   292.74958     -19.658292      269.64294      249.98465     -1697.0809      3908.4495      1.249102     
    174000   286.99047     -21.76183       264.3384       242.57657      1993.9006      3991.9501      1.2229743    
    175000   292.47032     -13.852902      269.38572      255.53282      3310.9626      3942.8419      1.2382064    
    176000   288.25538     -14.217148      265.50347      251.28632      720.02546      3965.7029      1.2310686    
    177000   273.25421     -8.1435043      251.68634      243.54284      2419.4127      3942.1794      1.2384145    
    178000   289.93944     -10.15333       267.05461      256.90128     -1523.8895      4058.674       1.2028688    
    179000   301.95471     -30.451266      278.12152      247.67025     -2121.7458      3946.6943      1.2369978    
    180000   285.65054     -37.180803      263.10423      225.92343     -2138.1406      3938.9149      1.2394409    
    181000   298.96529      10.47409       275.36805      285.84214      608.27016      3889.3306      1.2552423    
    182000   284.54583     -20.280499      262.08672      241.80622     -689.21328      3845.2111      1.2696448    
    183000   304.92865     -6.0317563      280.86073      274.82897     -1845.5234      4054.785       1.2040225    
    184000   291.97599     -14.970543      268.93041      253.95987     -1131.2411      3956.0681      1.2340668    
    185000   302.14594     -12.640977      278.29765      265.65667      5049.4966      3876.3564      1.2594436    
    186000   321.36972     -29.253051      296.0041       266.75105      2287.1917      3914.3053      1.2472334    
    187000   310.24491     -17.267616      285.75738      268.48976      1545.8598      3995.7996      1.2217961    
    188000   298.81176     -37.925582      275.22664      237.30106      3928.8763      3932.6158      1.2414262    
    189000   319.85422     -33.722123      294.60823      260.8861      -1981.9384      3917.3005      1.2462797    
    190000   259.90304     -24.690587      239.38897      214.69838      339.39144      3969.4596      1.2299035    
    191000   299.7136       0.074304618    276.05729      276.1316       2899.6674      3986.484       1.2246512    
    192000   291.78031     -41.328733      268.75018      227.42145     -4652.5659      3927.263       1.2431182    
    193000   305.85477     -29.817426      281.71374      251.89632      798.97268      3939.7652      1.2391734    
    194000   284.82277     -35.108353      262.34179      227.23344      553.50052      3904.2043      1.2504602    
    195000   297.05324     -17.739201      273.60692      255.86772      5284.8438      3982.8162      1.2257789    
    196000   294.38463     -28.061949      271.14894      243.08699     -226.25184      4008.5495      1.2179099    
    197000   283.21787     -19.383487      260.86357      241.48009     -1462.1845      4002.1737      1.2198502    
    198000   290.45462     -36.539089      267.52912      230.99004     -537.67486      3946.6795      1.2370025    
    199000   283.22314     -31.819747      260.86843      229.04868      3369.5857      3863.6687      1.2635794    
    200000   316.2616      -34.161946      291.29917      257.13722      1442.6557      3856.6862      1.2658671    
    200062   318.54399     -38.534867      293.40141      254.86655      594.32583      3934.315       1.24089      
Loop time of 21.0141 on 1 procs for 100000 steps with 310 atoms

Performance: 411.152 ns/day, 0.058 hours/ns, 4758.703 timesteps/s, 1.475 Matom-step/s
99.7% CPU use with 1 MPI tasks x 1 OpenMP threads

MPI task timing breakdown:
Section |  min time  |  avg time  |  max time  |%varavg| %total
---------------------------------------------------------------
Pair    | 10.594     | 10.594     | 10.594     |   0.0 | 50.41
Bond    | 3.6868     | 3.6868     | 3.6868     |   0.0 | 17.54
Neigh   | 4.9286     | 4.9286     | 4.9286     |   0.0 | 23.45
Comm    | 0.51485    | 0.51485    | 0.51485    |   0.0 |  2.45
Output  | 0.46406    | 0.46406    | 0.46406    |   0.0 |  2.21
Modify  | 0.69796    | 0.69796    | 0.69796    |   0.0 |  3.32
Other   |            | 0.1279     |            |       |  0.61

Nlocal:            310 ave         310 max         310 min
Histogram: 1 0 0 0 0 0 0 0 0 0
Nghost:           1918 ave        1918 max        1918 min
Histogram: 1 0 0 0 0 0 0 0 0 0
Neighs:          16619 ave       16619 max       16619 min
Histogram: 1 0 0 0 0 0 0 0 0 0

Total # of neighbors = 16619
Ave neighs/atom = 53.609677
Ave special neighs/atom = 5.8
Neighbor list builds = 2698
Dangerous builds = 0
unfix           npt_relax

# fix nvt_heat    all nvt temp 300 1000 ${thermal_damp}
# run 100000      # 100 picoseconds
# unfix           nvt_heat
#
# fix npt_heat    all npt temp 1000 1000 ${thermal_damp} iso 0 0 ${pressure_damp}
# run 100000      # 100 picoseconds
# unfix           npt_heat
#
# fix cooling_npt all npt temp 1000 300 ${thermal_damp} iso 0 0 ${pressure_damp}
# run 700000      # 700 picoseconds
# unfix           cooling_npt
#
# fix npt_final   all npt temp 300 300 ${thermal_damp} iso 0 0 100
# run 100000      # 100 picoseconds
# unfix           npt_final

# density computation
variable rho equal density
fix integrate  all npt temp ${temp} ${temp} ${thermal_damp} iso 0 0 ${pressure_damp}
fix integrate  all npt temp 300 ${temp} ${thermal_damp} iso 0 0 ${pressure_damp}
fix integrate  all npt temp 300 300 ${thermal_damp} iso 0 0 ${pressure_damp}
fix integrate  all npt temp 300 300 100.0 iso 0 0 ${pressure_damp}
fix integrate  all npt temp 300 300 100.0 iso 0 0 500.0
fix rho50k all ave/time 10 5000 50000 v_rho mode scalar ave one
run 50000
Generated 28 of 28 mixed pair_coeff terms from arithmetic mixing rule
WARNING: Inconsistent image flags
For more information see https://docs.lammps.org/err0027 (src/domain.cpp:1052)
Per MPI rank memory allocation (min/avg/max) = 19.45 | 19.45 | 19.45 Mbytes
   Step          Temp          PotEng         KinEng         TotEng         Press          Volume        Density    
    200062   318.54399     -38.534867      293.40141      254.86655      594.32583      3934.315       1.24089      
    201000   272.97148     -36.250978      251.42592      215.17495     -2066.1555      4063.0587      1.2015707    
    202000   315.63534     -31.805978      290.72234      258.91636      4297.2596      3972.0259      1.2291089    
    203000   276.88038     -62.969244      255.0263       192.05705      3140.5666      3920.5463      1.2452479    
    204000   287.74936     -21.141267      265.03739      243.89613     -4706.8718      4034.9517      1.2099407    
    205000   302.1311      -53.253221      278.28398      225.03076      616.94947      4002.8137      1.2196551    
    206000   296.42389     -26.949947      273.02725      246.0773      -783.08352      4123.9806      1.1838204    
    207000   289.27788     -26.713887      266.44526      239.73138     -2407.6461      3996.1014      1.2217038    
    208000   295.92218     -51.94024       272.56513      220.62489     -2944.8518      3944.1266      1.2378031    
    209000   279.71361     -30.801963      257.6359       226.83394     -2036.207       3989.5879      1.2236984    
    210000   323.45613     -31.94637       297.92583      265.97946     -281.85623      3972.4819      1.2289678    
    211000   322.3327      -53.070776      296.89108      243.8203       1083.1051      3948.3732      1.2364718    
    212000   283.0016      -63.522189      260.66437      197.14219     -2755.7566      3970.6599      1.2295317    
    213000   303.42954     -31.092922      279.47994      248.38702     -3653.3701      3998.3381      1.2210204    
    214000   295.13949     -32.174664      271.84422      239.66956      2396.7203      3931.3075      1.2418393    
    215000   304.97163     -25.645127      280.90031      255.25519     -3626.9165      4019.8504      1.214486     
    216000   304.8599      -46.306358      280.7974       234.49104      1279.7243      4011.1328      1.2171256    
    217000   318.39854     -21.819222      293.26744      271.44821      4944.6295      3985.7663      1.2248717    
    218000   277.87762     -42.096542      255.94482      213.84828     -2882.2875      3935.7848      1.2404266    
    219000   300.79437     -47.288597      277.05276      229.76416     -2074.325       3928.5381      1.2427148    
    220000   314.81785     -38.410598      289.96937      251.55878     -4381.7135      3932.9996      1.2413051    
    221000   300.28592     -47.581153      276.58444      229.00329      2702.0108      3950.7424      1.2357303    
    222000   292.48171     -57.235969      269.39622      212.16025      3621.2983      4014.7567      1.2160269    
    223000   281.53074     -27.527039      259.30961      231.78257     -2820.0342      4064.775       1.2010633    
    224000   319.20757     -32.787773      294.01261      261.22484     -762.46842      3900.7788      1.2515583    
    225000   297.79621     -44.477645      274.29124      229.8136      -1159.8083      3949.6349      1.2360769    
    226000   282.28505     -50.215342      260.00438      209.78904      1396.1765      3889.9367      1.2550467    
    227000   286.70701     -45.263525      264.07732      218.81379     -1436.4444      3835.716       1.2727877    
    228000   304.52657     -30.086531      280.49038      250.40385     -222.16496      3955.4982      1.2342446    
    229000   294.29446     -39.231427      271.06589      231.83446     -3424.0275      3879.4239      1.2584477    
    230000   332.43697     -62.307568      306.19782      243.89025      902.74831      3852.9428      1.267097     
    231000   311.29642     -35.701304      286.72589      251.02458      2734.3602      3894.6946      1.2535135    
    232000   276.53734     -71.33487       254.71033      183.37546      2071.4991      3848.5853      1.2685316    
    233000   319.97071     -40.816066      294.71552      253.89946     -129.0828       3911.7464      1.2480493    
    234000   299.4741      -62.319946      275.8367       213.51676      1817.1722      3877.8751      1.2589504    
    235000   315.83444     -52.700054      290.90572      238.20567      2373.0574      3889.9509      1.2550421    
    236000   299.62368     -41.031254      275.97447      234.94322     -498.16679      3965.1085      1.2312531    
    237000   296.13948     -21.423702      272.76528      251.34158     -243.77924      3911.85        1.2480162    
    238000   280.884       -47.818936      258.71391      210.89498      875.93965      3890.4591      1.2548782    
    239000   277.70527     -19.027658      255.78608      236.75842      373.6641       3943.9318      1.2378643    
    240000   300.59994     -29.83965       276.87368      247.03403      1950.1088      3887.9499      1.2556881    
    241000   291.21532     -46.635052      268.22978      221.59473      3315.8305      3883.9861      1.2569695    
    242000   304.31642     -14.340639      280.29682      265.95618      2720.8117      4003.4565      1.2194593    
    243000   311.1289      -36.970279      286.57159      249.60131     -438.45138      3953.4906      1.2348713    
    244000   283.09013     -61.575784      260.74592      199.17013     -2523.8289      3879.7675      1.2583363    
    245000   300.81996     -40.40057       277.07633      236.67576     -180.62624      3922.4429      1.2446459    
    246000   277.13712     -30.838575      255.26277      224.4242       5713.8813      3836.5344      1.2725162    
    247000   292.61558     -53.017475      269.51952      216.50205      1827.7786      3888.8437      1.2553995    
    248000   285.93481     -17.611645      263.36606      245.75442      7251.86        3914.9197      1.2470376    
    249000   295.32817     -26.749591      272.01801      245.26842      2910.8876      3895.4126      1.2532825    
    250000   300.24661     -35.389326      276.54824      241.15891     -1698.9687      4004.6346      1.2191005    
    250062   300.36833     -39.911295      276.66035      236.74906     -683.42863      3955.5046      1.2342426    
Loop time of 10.6219 on 1 procs for 50000 steps with 310 atoms

Performance: 406.705 ns/day, 0.059 hours/ns, 4707.236 timesteps/s, 1.459 Matom-step/s
99.8% CPU use with 1 MPI tasks x 1 OpenMP threads

MPI task timing breakdown:
Section |  min time  |  avg time  |  max time  |%varavg| %total
---------------------------------------------------------------
Pair    | 5.3136     | 5.3136     | 5.3136     |   0.0 | 50.03
Bond    | 1.876      | 1.876      | 1.876      |   0.0 | 17.66
Neigh   | 2.5062     | 2.5062     | 2.5062     |   0.0 | 23.59
Comm    | 0.26033    | 0.26033    | 0.26033    |   0.0 |  2.45
Output  | 0.24231    | 0.24231    | 0.24231    |   0.0 |  2.28
Modify  | 0.35788    | 0.35788    | 0.35788    |   0.0 |  3.37
Other   |            | 0.06563    |            |       |  0.62

Nlocal:            310 ave         310 max         310 min
Histogram: 1 0 0 0 0 0 0 0 0 0
Nghost:           1916 ave        1916 max        1916 min
Histogram: 1 0 0 0 0 0 0 0 0 0
Neighs:          16357 ave       16357 max       16357 min
Histogram: 1 0 0 0 0 0 0 0 0 0

Total # of neighbors = 16357
Ave neighs/atom = 52.764516
Ave special neighs/atom = 5.8
Neighbor list builds = 1364
Dangerous builds = 0
unfix integrate
unfix rho50k

# Compute initial state
fix 3 all box/relax  aniso 0.0
minimize ${etol} ${ftol} ${maxiter} ${maxeval}
minimize 0 ${ftol} ${maxiter} ${maxeval}
minimize 0 1e-10 ${maxiter} ${maxeval}
minimize 0 1e-10 100000 ${maxeval}
minimize 0 1e-10 100000 100000
Generated 28 of 28 mixed pair_coeff terms from arithmetic mixing rule
WARNING: Energy due to 3 extra global DOFs will be included in minimizer energies
 (src/min.cpp:222)
WARNING: Inconsistent image flags
For more information see https://docs.lammps.org/err0027 (src/domain.cpp:1052)
Per MPI rank memory allocation (min/avg/max) = 20.56 | 20.56 | 20.56 Mbytes
   Step          Temp          PotEng         KinEng         TotEng         Press          Volume        Density    
    250062   300.36833     -39.911295      276.66035      236.74906     -683.42863      3955.5046      1.2342426    
    250277   300.36833     -218.50057      276.66035      58.159778      3300.2617      3944.2581      1.2377619    
Loop time of 0.0694907 on 1 procs for 215 steps with 310 atoms

100.0% CPU use with 1 MPI tasks x 1 OpenMP threads

Minimization stats:
  Stopping criterion = linesearch alpha is zero
  Energy initial, next-to-last, final = 
     -39.9112948508349  -218.500572327412  -218.500572327412
  Force two-norm initial, final = 715.58602 108.24878
  Force max component initial, final = 376.95789 16.233552
  Final line search alpha, max atom move = 1.0597449e-12 1.7203425e-11
  Iterations, force evaluations = 215 341

MPI task timing breakdown:
Section |  min time  |  avg time  |  max time  |%varavg| %total
---------------------------------------------------------------
Pair    | 0.043459   | 0.043459   | 0.043459   |   0.0 | 62.54
Bond    | 0.014601   | 0.014601   | 0.014601   |   0.0 | 21.01
Neigh   | 0          | 0          | 0          |   0.0 |  0.00
Comm    | 0.001637   | 0.001637   | 0.001637   |   0.0 |  2.36
Output  | 0.0010382  | 0.0010382  | 0.0010382  |   0.0 |  1.49
Modify  | 0          | 0          | 0          |   0.0 |  0.00
Other   |            | 0.008755   |            |       | 12.60

Nlocal:            310 ave         310 max         310 min
Histogram: 1 0 0 0 0 0 0 0 0 0
Nghost:           1922 ave        1922 max        1922 min
Histogram: 1 0 0 0 0 0 0 0 0 0
Neighs:          16379 ave       16379 max       16379 min
Histogram: 1 0 0 0 0 0 0 0 0 0

Total # of neighbors = 16379
Ave neighs/atom = 52.835484
Ave special neighs/atom = 5.8
Neighbor list builds = 0
Dangerous builds = 0

variable tmp equal pxx
variable pxx0 equal ${tmp}
variable pxx0 equal 3224.49024519602
variable tmp equal pyy
variable pyy0 equal ${tmp}
variable pyy0 equal 3218.07771957507
variable tmp equal pzz
variable pzz0 equal ${tmp}
variable pzz0 equal 3458.21712082297
variable tmp equal pyz
variable pyz0 equal ${tmp}
variable pyz0 equal -3267.64467696642
variable tmp equal pxz
variable pxz0 equal ${tmp}
variable pxz0 equal 1085.19536252955
variable tmp equal pxy
variable pxy0 equal ${tmp}
variable pxy0 equal -552.024696064613

variable tmp equal lx
variable lx0 equal ${tmp}
variable lx0 equal 16.2625068148798
variable tmp equal ly
variable ly0 equal ${tmp}
variable ly0 equal 13.106631915133
variable tmp equal lz
variable lz0 equal ${tmp}
variable lz0 equal 18.5048994768807

# These formulas define the derivatives w.r.t. strain components
# Constants uses $, variables use v_
variable d1 equal -(v_pxx1-${pxx0})/(v_delta/v_len0)*${cfac}
variable d1 equal -(v_pxx1-3224.49024519602)/(v_delta/v_len0)*${cfac}
variable d1 equal -(v_pxx1-3224.49024519602)/(v_delta/v_len0)*0.0001
variable d2 equal -(v_pyy1-${pyy0})/(v_delta/v_len0)*${cfac}
variable d2 equal -(v_pyy1-3218.07771957507)/(v_delta/v_len0)*${cfac}
variable d2 equal -(v_pyy1-3218.07771957507)/(v_delta/v_len0)*0.0001
variable d3 equal -(v_pzz1-${pzz0})/(v_delta/v_len0)*${cfac}
variable d3 equal -(v_pzz1-3458.21712082297)/(v_delta/v_len0)*${cfac}
variable d3 equal -(v_pzz1-3458.21712082297)/(v_delta/v_len0)*0.0001
variable d4 equal -(v_pyz1-${pyz0})/(v_delta/v_len0)*${cfac}
variable d4 equal -(v_pyz1--3267.64467696642)/(v_delta/v_len0)*${cfac}
variable d4 equal -(v_pyz1--3267.64467696642)/(v_delta/v_len0)*0.0001
variable d5 equal -(v_pxz1-${pxz0})/(v_delta/v_len0)*${cfac}
variable d5 equal -(v_pxz1-1085.19536252955)/(v_delta/v_len0)*${cfac}
variable d5 equal -(v_pxz1-1085.19536252955)/(v_delta/v_len0)*0.0001
variable d6 equal -(v_pxy1-${pxy0})/(v_delta/v_len0)*${cfac}
variable d6 equal -(v_pxy1--552.024696064613)/(v_delta/v_len0)*${cfac}
variable d6 equal -(v_pxy1--552.024696064613)/(v_delta/v_len0)*0.0001

# displace_atoms all random ${atomjiggle} ${atomjiggle} ${atomjiggle} 87287 units box

# Write restart
unfix 3
write_restart restart_333-RV-31-vasp.equil
System init for write_restart ...
Generated 28 of 28 mixed pair_coeff terms from arithmetic mixing rule

# uxx Perturbation

variable dir equal 1
include ./input/displace_333-RV-31-vasp.mod
if "${dir} == 1" then    "variable len0 equal ${lx0}"
variable len0 equal ${lx0}
variable len0 equal 16.2625068148798
if "${dir} == 2" then    "variable len0 equal ${ly0}"
if "${dir} == 3" then    "variable len0 equal ${lz0}"
if "${dir} == 4" then    "variable len0 equal ${lz0}"
if "${dir} == 5" then    "variable len0 equal ${lz0}"
if "${dir} == 6" then    "variable len0 equal ${ly0}"

# Reset box and simulation parameters

clear
OMP_NUM_THREADS environment is not set. Defaulting to 1 thread.
  using 1 OpenMP thread(s) per MPI task
box tilt large

The 'box' command has been removed and will be ignored

read_restart restart_333-RV-31-vasp.equil
Reading restart file ...
  restart file = 10 Sep 2025, LAMMPS = 10 Sep 2025
  restoring atom style full from restart
  triclinic box = (-0.42552991 -0.35196396 -0.50073024) to (15.836977 12.754668 18.004169) with tilt (-7.6114743 -1.9305519 0.35776475)
WARNING: Triclinic box skew is large. LAMMPS will run inefficiently. (src/domain.cpp:221)
  1 by 1 by 1 MPI processor grid
  restoring pair style lj/cut from restart
  restoring bond style harmonic from restart
  restoring angle style hybrid from restart
  restoring dihedral style harmonic from restart
  310 atoms
  315 bonds
  584 angles
  669 dihedrals
Finding 1-2 1-3 1-4 neighbors ...
  special bond factors lj:    0        0        1       
  special bond factors coul:  0        0        1       
     4 = max # of 1-2 neighbors
    10 = max # of 1-3 neighbors
    14 = max # of special neighbors
  special bonds CPU = 0.000 seconds
  read_restart CPU = 0.002 seconds
include ./input/angles_333-RV-31-vasp.mod
angle_style hybrid fourier cosine/periodic
angle_coeff 1 fourier 58.020602        0.343737        0.374972        0.281246
angle_coeff 2 fourier 83.380072        0.343737        0.374972        0.281246
angle_coeff 3 fourier 157.882480        0.343737        0.374972        0.281246
angle_coeff 4 fourier 221.735285        0.343737        0.374972        0.281246
angle_coeff 5 fourier 32.417871        0.343737        0.374972        0.281246
angle_coeff 6 fourier 114.246973        0.343737        0.374972        0.281246
angle_coeff 7 fourier 90.420412        0.343737        0.374972        0.281246
angle_coeff 8 fourier 75.498766        0.343737        0.374972        0.281246
angle_coeff 9 cosine/periodic 88.853997              -1               3

# Negative deformation

variable delta equal -${up}*${len0}
variable delta equal -0.02*${len0}
variable delta equal -0.02*16.2625068148798
variable deltaxy equal -${up}*xy
variable deltaxy equal -0.02*xy
variable deltaxz equal -${up}*xz
variable deltaxz equal -0.02*xz
variable deltayz equal -${up}*yz
variable deltayz equal -0.02*yz
if "${dir} == 1" then    "change_box all x delta 0 ${delta} xy delta ${deltaxy} xz delta ${deltaxz} remap units box"
change_box all x delta 0 ${delta} xy delta ${deltaxy} xz delta ${deltaxz} remap units box
change_box all x delta 0 -0.325250136297596 xy delta ${deltaxy} xz delta ${deltaxz} remap units box
change_box all x delta 0 -0.325250136297596 xy delta 0.152229485531321 xz delta ${deltaxz} remap units box
change_box all x delta 0 -0.325250136297596 xy delta 0.152229485531321 xz delta 0.0386110378679816 remap units box
Changing box ...
WARNING: Triclinic box skew is large. LAMMPS will run inefficiently. (src/domain.cpp:221)
  triclinic box = (-0.42552991 -0.35196396 -0.50073024) to (15.511727 12.754668 18.004169) with tilt (-7.6114743 -1.9305519 0.35776475)
WARNING: Triclinic box skew is large. LAMMPS will run inefficiently. (src/domain.cpp:221)
  triclinic box = (-0.42552991 -0.35196396 -0.50073024) to (15.511727 12.754668 18.004169) with tilt (-7.4592448 -1.9305519 0.35776475)
WARNING: Triclinic box skew is large. LAMMPS will run inefficiently. (src/domain.cpp:221)
  triclinic box = (-0.42552991 -0.35196396 -0.50073024) to (15.511727 12.754668 18.004169) with tilt (-7.4592448 -1.8919409 0.35776475)
if "${dir} == 2" then    "change_box all y delta 0 ${delta} yz delta ${deltayz} remap units box"
if "${dir} == 3" then    "change_box all z delta 0 ${delta} remap units box"
if "${dir} == 4" then    "change_box all yz delta ${delta} remap units box"
if "${dir} == 5" then    "change_box all xz delta ${delta} remap units box"
if "${dir} == 6" then    "change_box all xy delta ${delta} remap units box"

# Relax atoms positions

minimize ${etol} ${ftol} ${maxiter} ${maxeval}
minimize 0 ${ftol} ${maxiter} ${maxeval}
minimize 0 1e-10 ${maxiter} ${maxeval}
minimize 0 1e-10 100000 ${maxeval}
minimize 0 1e-10 100000 100000
Generated 28 of 28 mixed pair_coeff terms from arithmetic mixing rule
Neighbor list info ...
  update: every = 1 steps, delay = 0 steps, check = yes
  max neighbors/atom: 2000, page size: 100000
  master list distance cutoff = 7
  ghost atom cutoff = 7
  binsize = 3.5, bins = 8 4 6
  1 neighbor lists, perpetual/occasional/extra = 1 0 0
  (1) pair lj/cut, perpetual
      attributes: half, newton on
      pair build: half/bin/newton/tri
      stencil: half/bin/3d/tri
      bin: standard
WARNING: Inconsistent image flags
For more information see https://docs.lammps.org/err0027 (src/domain.cpp:1052)
Per MPI rank memory allocation (min/avg/max) = 19.47 | 19.47 | 19.47 Mbytes
   Step          Temp          E_pair         E_mol          TotEng         Press     
    250277   300.36833     -377.93828      180.15521      78.877279      20670.74     
    250345   300.36833     -403.74927      85.764942     -41.323975      651.02556    
Loop time of 0.0359344 on 1 procs for 68 steps with 310 atoms

100.0% CPU use with 1 MPI tasks x 1 OpenMP threads

Minimization stats:
  Stopping criterion = linesearch alpha is zero
  Energy initial, next-to-last, final = 
     -197.783070603778  -317.984325275301  -317.984325275301
  Force two-norm initial, final = 189.33108 13.530115
  Force max component initial, final = 22.75512 1.8365473
  Final line search alpha, max atom move = 6.0619909e-11 1.1133133e-10
  Iterations, force evaluations = 68 189

MPI task timing breakdown:
Section |  min time  |  avg time  |  max time  |%varavg| %total
---------------------------------------------------------------
Pair    | 0.025213   | 0.025213   | 0.025213   |   0.0 | 70.16
Bond    | 0.0069619  | 0.0069619  | 0.0069619  |   0.0 | 19.37
Neigh   | 0.0020783  | 0.0020783  | 0.0020783  |   0.0 |  5.78
Comm    | 0.00092717 | 0.00092717 | 0.00092717 |   0.0 |  2.58
Output  | 0          | 0          | 0          |   0.0 |  0.00
Modify  | 0          | 0          | 0          |   0.0 |  0.00
Other   |            | 0.0007542  |            |       |  2.10

Nlocal:            310 ave         310 max         310 min
Histogram: 1 0 0 0 0 0 0 0 0 0
Nghost:           1954 ave        1954 max        1954 min
Histogram: 1 0 0 0 0 0 0 0 0 0
Neighs:          16718 ave       16718 max       16718 min
Histogram: 1 0 0 0 0 0 0 0 0 0

Total # of neighbors = 16718
Ave neighs/atom = 53.929032
Ave special neighs/atom = 5.8
Neighbor list builds = 1
Dangerous builds = 0

# Obtain new stress tensor

variable tmp equal pxx
variable pxx1 equal ${tmp}
variable pxx1 equal -527.543598122812
variable tmp equal pyy
variable pyy1 equal ${tmp}
variable pyy1 equal 1277.9580148814
variable tmp equal pzz
variable pzz1 equal ${tmp}
variable pzz1 equal 1202.66227229574
variable tmp equal pxy
variable pxy1 equal ${tmp}
variable pxy1 equal -408.178784873187
variable tmp equal pxz
variable pxz1 equal ${tmp}
variable pxz1 equal 1165.8208012803
variable tmp equal pyz
variable pyz1 equal ${tmp}
variable pyz1 equal -862.034797871179

# Compute elastic constant from pressure tensor

variable C1neg equal ${d1}
variable C1neg equal -18.7601692165942
variable C2neg equal ${d2}
variable C2neg equal -9.70059852346835
variable C3neg equal ${d3}
variable C3neg equal -11.2777742426361
variable C4neg equal ${d4}
variable C4neg equal 12.0280493954762
variable C5neg equal ${d5}
variable C5neg equal 0.40312719375375
variable C6neg equal ${d6}
variable C6neg equal 0.71922955595713

# Reset box and simulation parameters

clear
OMP_NUM_THREADS environment is not set. Defaulting to 1 thread.
  using 1 OpenMP thread(s) per MPI task
box tilt large

The 'box' command has been removed and will be ignored

read_restart restart_333-RV-31-vasp.equil
Reading restart file ...
  restart file = 10 Sep 2025, LAMMPS = 10 Sep 2025
  restoring atom style full from restart
  triclinic box = (-0.42552991 -0.35196396 -0.50073024) to (15.836977 12.754668 18.004169) with tilt (-7.6114743 -1.9305519 0.35776475)
WARNING: Triclinic box skew is large. LAMMPS will run inefficiently. (src/domain.cpp:221)
  1 by 1 by 1 MPI processor grid
  restoring pair style lj/cut from restart
  restoring bond style harmonic from restart
  restoring angle style hybrid from restart
  restoring dihedral style harmonic from restart
  310 atoms
  315 bonds
  584 angles
  669 dihedrals
Finding 1-2 1-3 1-4 neighbors ...
  special bond factors lj:    0        0        1       
  special bond factors coul:  0        0        1       
     4 = max # of 1-2 neighbors
    10 = max # of 1-3 neighbors
    14 = max # of special neighbors
  special bonds CPU = 0.000 seconds
  read_restart CPU = 0.002 seconds
include ./input/angles_333-RV-31-vasp.mod
angle_style hybrid fourier cosine/periodic
angle_coeff 1 fourier 58.020602        0.343737        0.374972        0.281246
angle_coeff 2 fourier 83.380072        0.343737        0.374972        0.281246
angle_coeff 3 fourier 157.882480        0.343737        0.374972        0.281246
angle_coeff 4 fourier 221.735285        0.343737        0.374972        0.281246
angle_coeff 5 fourier 32.417871        0.343737        0.374972        0.281246
angle_coeff 6 fourier 114.246973        0.343737        0.374972        0.281246
angle_coeff 7 fourier 90.420412        0.343737        0.374972        0.281246
angle_coeff 8 fourier 75.498766        0.343737        0.374972        0.281246
angle_coeff 9 cosine/periodic 88.853997              -1               3

# Positive deformation

variable delta equal ${up}*${len0}
variable delta equal 0.02*${len0}
variable delta equal 0.02*16.2625068148798
variable deltaxy equal ${up}*xy
variable deltaxy equal 0.02*xy
variable deltaxz equal ${up}*xz
variable deltaxz equal 0.02*xz
variable deltayz equal ${up}*yz
variable deltayz equal 0.02*yz
if "${dir} == 1" then    "change_box all x delta 0 ${delta} xy delta ${deltaxy} xz delta ${deltaxz} remap units box"
change_box all x delta 0 ${delta} xy delta ${deltaxy} xz delta ${deltaxz} remap units box
change_box all x delta 0 0.325250136297596 xy delta ${deltaxy} xz delta ${deltaxz} remap units box
change_box all x delta 0 0.325250136297596 xy delta -0.152229485531321 xz delta ${deltaxz} remap units box
change_box all x delta 0 0.325250136297596 xy delta -0.152229485531321 xz delta -0.0386110378679816 remap units box
Changing box ...
WARNING: Triclinic box skew is large. LAMMPS will run inefficiently. (src/domain.cpp:221)
  triclinic box = (-0.42552991 -0.35196396 -0.50073024) to (16.162227 12.754668 18.004169) with tilt (-7.6114743 -1.9305519 0.35776475)
WARNING: Triclinic box skew is large. LAMMPS will run inefficiently. (src/domain.cpp:221)
  triclinic box = (-0.42552991 -0.35196396 -0.50073024) to (16.162227 12.754668 18.004169) with tilt (-7.7637038 -1.9305519 0.35776475)
WARNING: Triclinic box skew is large. LAMMPS will run inefficiently. (src/domain.cpp:221)
  triclinic box = (-0.42552991 -0.35196396 -0.50073024) to (16.162227 12.754668 18.004169) with tilt (-7.7637038 -1.9691629 0.35776475)
if "${dir} == 2" then    "change_box all y delta 0 ${delta} yz delta ${deltayz} remap units box"
if "${dir} == 3" then    "change_box all z delta 0 ${delta} remap units box"
if "${dir} == 4" then    "change_box all yz delta ${delta} remap units box"
if "${dir} == 5" then    "change_box all xz delta ${delta} remap units box"
if "${dir} == 6" then    "change_box all xy delta ${delta} remap units box"

# Relax atoms positions

minimize ${etol} ${ftol} ${maxiter} ${maxeval}
minimize 0 ${ftol} ${maxiter} ${maxeval}
minimize 0 1e-10 ${maxiter} ${maxeval}
minimize 0 1e-10 100000 ${maxeval}
minimize 0 1e-10 100000 100000
Generated 28 of 28 mixed pair_coeff terms from arithmetic mixing rule
Neighbor list info ...
  update: every = 1 steps, delay = 0 steps, check = yes
  max neighbors/atom: 2000, page size: 100000
  master list distance cutoff = 7
  ghost atom cutoff = 7
  binsize = 3.5, bins = 8 4 6
  1 neighbor lists, perpetual/occasional/extra = 1 0 0
  (1) pair lj/cut, perpetual
      attributes: half, newton on
      pair build: half/bin/newton/tri
      stencil: half/bin/3d/tri
      bin: standard
WARNING: Inconsistent image flags
For more information see https://docs.lammps.org/err0027 (src/domain.cpp:1052)
Per MPI rank memory allocation (min/avg/max) = 19.47 | 19.47 | 19.47 Mbytes
   Step          Temp          E_pair         E_mol          TotEng         Press     
    250277   300.36833     -377.9579       180.301        79.003453     -13659.664    
    250320   300.36833     -390.39852      88.037927     -25.700241     -1487.6545    
Loop time of 0.024317 on 1 procs for 43 steps with 310 atoms

100.0% CPU use with 1 MPI tasks x 1 OpenMP threads

Minimization stats:
  Stopping criterion = linesearch alpha is zero
  Energy initial, next-to-last, final = 
     -197.656896867522  -302.360590987781  -302.360590987781
  Force two-norm initial, final = 188.32594 18.865806
  Force max component initial, final = 24.184395 3.1457387
  Final line search alpha, max atom move = 2.7497729e-11 8.6500669e-11
  Iterations, force evaluations = 43 141

MPI task timing breakdown:
Section |  min time  |  avg time  |  max time  |%varavg| %total
---------------------------------------------------------------
Pair    | 0.017958   | 0.017958   | 0.017958   |   0.0 | 73.85
Bond    | 0.0051881  | 0.0051881  | 0.0051881  |   0.0 | 21.34
Neigh   | 0          | 0          | 0          |   0.0 |  0.00
Comm    | 0.00064418 | 0.00064418 | 0.00064418 |   0.0 |  2.65
Output  | 0          | 0          | 0          |   0.0 |  0.00
Modify  | 0          | 0          | 0          |   0.0 |  0.00
Other   |            | 0.0005271  |            |       |  2.17

Nlocal:            310 ave         310 max         310 min
Histogram: 1 0 0 0 0 0 0 0 0 0
Nghost:           1904 ave        1904 max        1904 min
Histogram: 1 0 0 0 0 0 0 0 0 0
Neighs:          16146 ave       16146 max       16146 min
Histogram: 1 0 0 0 0 0 0 0 0 0

Total # of neighbors = 16146
Ave neighs/atom = 52.083871
Ave special neighs/atom = 5.8
Neighbor list builds = 0
Dangerous builds = 0

# Obtain new stress tensor

variable tmp equal pe
variable e1 equal ${tmp}
variable e1 equal -302.360590987781
variable tmp equal press
variable p1 equal ${tmp}
variable p1 equal -1487.65451856158
variable tmp equal pxx
variable pxx1 equal ${tmp}
variable pxx1 equal -2941.4839006806
variable tmp equal pyy
variable pyy1 equal ${tmp}
variable pyy1 equal -425.361499317865
variable tmp equal pzz
variable pzz1 equal ${tmp}
variable pzz1 equal -1096.11815568629
variable tmp equal pxy
variable pxy1 equal ${tmp}
variable pxy1 equal 409.351182781998
variable tmp equal pxz
variable pxz1 equal ${tmp}
variable pxz1 equal 1109.44791158164
variable tmp equal pyz
variable pyz1 equal ${tmp}
variable pyz1 equal -1337.68349240167

# Compute elastic constant from pressure tensor

variable C1pos equal ${d1}
variable C1pos equal 30.8298707293831
variable C2pos equal ${d2}
variable C2pos equal 18.2171960944647
variable C3pos equal ${d3}
variable C3pos equal 22.7716763825463
variable C4pos equal ${d4}
variable C4pos equal -9.64980592282375
variable C5pos equal ${d5}
variable C5pos equal -0.12126274526045
variable C6pos equal ${d6}
variable C6pos equal -4.80687939423305

# Combine positive and negative

variable C1${dir} equal 0.5*(${C1neg}+${C1pos})
variable C11 equal 0.5*(${C1neg}+${C1pos})
variable C11 equal 0.5*(-18.7601692165942+${C1pos})
variable C11 equal 0.5*(-18.7601692165942+30.8298707293831)
variable C2${dir} equal 0.5*(${C2neg}+${C2pos})
variable C21 equal 0.5*(${C2neg}+${C2pos})
variable C21 equal 0.5*(-9.70059852346835+${C2pos})
variable C21 equal 0.5*(-9.70059852346835+18.2171960944647)
variable C3${dir} equal 0.5*(${C3neg}+${C3pos})
variable C31 equal 0.5*(${C3neg}+${C3pos})
variable C31 equal 0.5*(-11.2777742426361+${C3pos})
variable C31 equal 0.5*(-11.2777742426361+22.7716763825463)
variable C4${dir} equal 0.5*(${C4neg}+${C4pos})
variable C41 equal 0.5*(${C4neg}+${C4pos})
variable C41 equal 0.5*(12.0280493954762+${C4pos})
variable C41 equal 0.5*(12.0280493954762+-9.64980592282375)
variable C5${dir} equal 0.5*(${C5neg}+${C5pos})
variable C51 equal 0.5*(${C5neg}+${C5pos})
variable C51 equal 0.5*(0.40312719375375+${C5pos})
variable C51 equal 0.5*(0.40312719375375+-0.12126274526045)
variable C6${dir} equal 0.5*(${C6neg}+${C6pos})
variable C61 equal 0.5*(${C6neg}+${C6pos})
variable C61 equal 0.5*(0.71922955595713+${C6pos})
variable C61 equal 0.5*(0.71922955595713+-4.80687939423305)

# Delete dir to make sure it is not reused

variable dir delete

# uyy Perturbation

variable dir equal 2
include ./input/displace_333-RV-31-vasp.mod
if "${dir} == 1" then    "variable len0 equal ${lx0}"
if "${dir} == 2" then    "variable len0 equal ${ly0}"
variable len0 equal ${ly0}
variable len0 equal 13.106631915133
if "${dir} == 3" then    "variable len0 equal ${lz0}"
if "${dir} == 4" then    "variable len0 equal ${lz0}"
if "${dir} == 5" then    "variable len0 equal ${lz0}"
if "${dir} == 6" then    "variable len0 equal ${ly0}"

# Reset box and simulation parameters

clear
OMP_NUM_THREADS environment is not set. Defaulting to 1 thread.
  using 1 OpenMP thread(s) per MPI task
box tilt large

The 'box' command has been removed and will be ignored

read_restart restart_333-RV-31-vasp.equil
Reading restart file ...
  restart file = 10 Sep 2025, LAMMPS = 10 Sep 2025
  restoring atom style full from restart
  triclinic box = (-0.42552991 -0.35196396 -0.50073024) to (15.836977 12.754668 18.004169) with tilt (-7.6114743 -1.9305519 0.35776475)
WARNING: Triclinic box skew is large. LAMMPS will run inefficiently. (src/domain.cpp:221)
  1 by 1 by 1 MPI processor grid
  restoring pair style lj/cut from restart
  restoring bond style harmonic from restart
  restoring angle style hybrid from restart
  restoring dihedral style harmonic from restart
  310 atoms
  315 bonds
  584 angles
  669 dihedrals
Finding 1-2 1-3 1-4 neighbors ...
  special bond factors lj:    0        0        1       
  special bond factors coul:  0        0        1       
     4 = max # of 1-2 neighbors
    10 = max # of 1-3 neighbors
    14 = max # of special neighbors
  special bonds CPU = 0.000 seconds
  read_restart CPU = 0.001 seconds
include ./input/angles_333-RV-31-vasp.mod
angle_style hybrid fourier cosine/periodic
angle_coeff 1 fourier 58.020602        0.343737        0.374972        0.281246
angle_coeff 2 fourier 83.380072        0.343737        0.374972        0.281246
angle_coeff 3 fourier 157.882480        0.343737        0.374972        0.281246
angle_coeff 4 fourier 221.735285        0.343737        0.374972        0.281246
angle_coeff 5 fourier 32.417871        0.343737        0.374972        0.281246
angle_coeff 6 fourier 114.246973        0.343737        0.374972        0.281246
angle_coeff 7 fourier 90.420412        0.343737        0.374972        0.281246
angle_coeff 8 fourier 75.498766        0.343737        0.374972        0.281246
angle_coeff 9 cosine/periodic 88.853997              -1               3

# Negative deformation

variable delta equal -${up}*${len0}
variable delta equal -0.02*${len0}
variable delta equal -0.02*13.106631915133
variable deltaxy equal -${up}*xy
variable deltaxy equal -0.02*xy
variable deltaxz equal -${up}*xz
variable deltaxz equal -0.02*xz
variable deltayz equal -${up}*yz
variable deltayz equal -0.02*yz
if "${dir} == 1" then    "change_box all x delta 0 ${delta} xy delta ${deltaxy} xz delta ${deltaxz} remap units box"
if "${dir} == 2" then    "change_box all y delta 0 ${delta} yz delta ${deltayz} remap units box"
change_box all y delta 0 ${delta} yz delta ${deltayz} remap units box
change_box all y delta 0 -0.26213263830266 yz delta ${deltayz} remap units box
change_box all y delta 0 -0.26213263830266 yz delta -0.00715529502250953 remap units box
Changing box ...
WARNING: Triclinic box skew is large. LAMMPS will run inefficiently. (src/domain.cpp:221)
  triclinic box = (-0.42552991 -0.35196396 -0.50073024) to (15.836977 12.492535 18.004169) with tilt (-7.6114743 -1.9305519 0.35776475)
WARNING: Triclinic box skew is large. LAMMPS will run inefficiently. (src/domain.cpp:221)
  triclinic box = (-0.42552991 -0.35196396 -0.50073024) to (15.836977 12.492535 18.004169) with tilt (-7.6114743 -1.9305519 0.35060946)
if "${dir} == 3" then    "change_box all z delta 0 ${delta} remap units box"
if "${dir} == 4" then    "change_box all yz delta ${delta} remap units box"
if "${dir} == 5" then    "change_box all xz delta ${delta} remap units box"
if "${dir} == 6" then    "change_box all xy delta ${delta} remap units box"

# Relax atoms positions

minimize ${etol} ${ftol} ${maxiter} ${maxeval}
minimize 0 ${ftol} ${maxiter} ${maxeval}
minimize 0 1e-10 ${maxiter} ${maxeval}
minimize 0 1e-10 100000 ${maxeval}
minimize 0 1e-10 100000 100000
Generated 28 of 28 mixed pair_coeff terms from arithmetic mixing rule
Neighbor list info ...
  update: every = 1 steps, delay = 0 steps, check = yes
  max neighbors/atom: 2000, page size: 100000
  master list distance cutoff = 7
  ghost atom cutoff = 7
  binsize = 3.5, bins = 8 4 6
  1 neighbor lists, perpetual/occasional/extra = 1 0 0
  (1) pair lj/cut, perpetual
      attributes: half, newton on
      pair build: half/bin/newton/tri
      stencil: half/bin/3d/tri
      bin: standard
WARNING: Inconsistent image flags
For more information see https://docs.lammps.org/err0027 (src/domain.cpp:1052)
Per MPI rank memory allocation (min/avg/max) = 19.47 | 19.47 | 19.47 Mbytes
   Step          Temp          E_pair         E_mol          TotEng         Press     
    250277   300.36833     -375.38297      178.4635       79.740886      21527.294    
    250306   300.36833     -399.48629      93.93592      -28.890016      1929.6324    
Loop time of 0.0201868 on 1 procs for 29 steps with 310 atoms

100.0% CPU use with 1 MPI tasks x 1 OpenMP threads

Minimization stats:
  Stopping criterion = linesearch alpha is zero
  Energy initial, next-to-last, final = 
     -196.919463810317  -305.550365670809  -305.550365670809
  Force two-norm initial, final = 182.11612 26.223958
  Force max component initial, final = 24.136003 4.7445696
  Final line search alpha, max atom move = 1.4571686e-11 6.913638e-11
  Iterations, force evaluations = 29 115

MPI task timing breakdown:
Section |  min time  |  avg time  |  max time  |%varavg| %total
---------------------------------------------------------------
Pair    | 0.015063   | 0.015063   | 0.015063   |   0.0 | 74.62
Bond    | 0.0041848  | 0.0041848  | 0.0041848  |   0.0 | 20.73
Neigh   | 0          | 0          | 0          |   0.0 |  0.00
Comm    | 0.00054344 | 0.00054344 | 0.00054344 |   0.0 |  2.69
Output  | 0          | 0          | 0          |   0.0 |  0.00
Modify  | 0          | 0          | 0          |   0.0 |  0.00
Other   |            | 0.0003952  |            |       |  1.96

Nlocal:            310 ave         310 max         310 min
Histogram: 1 0 0 0 0 0 0 0 0 0
Nghost:           1948 ave        1948 max        1948 min
Histogram: 1 0 0 0 0 0 0 0 0 0
Neighs:          16776 ave       16776 max       16776 min
Histogram: 1 0 0 0 0 0 0 0 0 0

Total # of neighbors = 16776
Ave neighs/atom = 54.116129
Ave special neighs/atom = 5.8
Neighbor list builds = 0
Dangerous builds = 0

# Obtain new stress tensor

variable tmp equal pxx
variable pxx1 equal ${tmp}
variable pxx1 equal -57.8716187547269
variable tmp equal pyy
variable pyy1 equal ${tmp}
variable pyy1 equal 5032.05561625661
variable tmp equal pzz
variable pzz1 equal ${tmp}
variable pzz1 equal 814.713351716433
variable tmp equal pxy
variable pxy1 equal ${tmp}
variable pxy1 equal -380.874822508776
variable tmp equal pxz
variable pxz1 equal ${tmp}
variable pxz1 equal 848.961377078556
variable tmp equal pyz
variable pyz1 equal ${tmp}
variable pyz1 equal -1192.85020545525

# Compute elastic constant from pressure tensor

variable C1neg equal ${d1}
variable C1neg equal -16.4118093197537
variable C2neg equal ${d2}
variable C2neg equal 9.0698894834077
variable C3neg equal ${d3}
variable C3neg equal -13.2175188455327
variable C4neg equal ${d4}
variable C4neg equal 10.3739723575559
variable C5neg equal ${d5}
variable C5neg equal -1.18116992725497
variable C6neg equal ${d6}
variable C6neg equal 0.855749367779185

# Reset box and simulation parameters

clear
OMP_NUM_THREADS environment is not set. Defaulting to 1 thread.
  using 1 OpenMP thread(s) per MPI task
box tilt large

The 'box' command has been removed and will be ignored

read_restart restart_333-RV-31-vasp.equil
Reading restart file ...
  restart file = 10 Sep 2025, LAMMPS = 10 Sep 2025
  restoring atom style full from restart
  triclinic box = (-0.42552991 -0.35196396 -0.50073024) to (15.836977 12.754668 18.004169) with tilt (-7.6114743 -1.9305519 0.35776475)
WARNING: Triclinic box skew is large. LAMMPS will run inefficiently. (src/domain.cpp:221)
  1 by 1 by 1 MPI processor grid
  restoring pair style lj/cut from restart
  restoring bond style harmonic from restart
  restoring angle style hybrid from restart
  restoring dihedral style harmonic from restart
  310 atoms
  315 bonds
  584 angles
  669 dihedrals
Finding 1-2 1-3 1-4 neighbors ...
  special bond factors lj:    0        0        1       
  special bond factors coul:  0        0        1       
     4 = max # of 1-2 neighbors
    10 = max # of 1-3 neighbors
    14 = max # of special neighbors
  special bonds CPU = 0.000 seconds
  read_restart CPU = 0.001 seconds
include ./input/angles_333-RV-31-vasp.mod
angle_style hybrid fourier cosine/periodic
angle_coeff 1 fourier 58.020602        0.343737        0.374972        0.281246
angle_coeff 2 fourier 83.380072        0.343737        0.374972        0.281246
angle_coeff 3 fourier 157.882480        0.343737        0.374972        0.281246
angle_coeff 4 fourier 221.735285        0.343737        0.374972        0.281246
angle_coeff 5 fourier 32.417871        0.343737        0.374972        0.281246
angle_coeff 6 fourier 114.246973        0.343737        0.374972        0.281246
angle_coeff 7 fourier 90.420412        0.343737        0.374972        0.281246
angle_coeff 8 fourier 75.498766        0.343737        0.374972        0.281246
angle_coeff 9 cosine/periodic 88.853997              -1               3

# Positive deformation

variable delta equal ${up}*${len0}
variable delta equal 0.02*${len0}
variable delta equal 0.02*13.106631915133
variable deltaxy equal ${up}*xy
variable deltaxy equal 0.02*xy
variable deltaxz equal ${up}*xz
variable deltaxz equal 0.02*xz
variable deltayz equal ${up}*yz
variable deltayz equal 0.02*yz
if "${dir} == 1" then    "change_box all x delta 0 ${delta} xy delta ${deltaxy} xz delta ${deltaxz} remap units box"
if "${dir} == 2" then    "change_box all y delta 0 ${delta} yz delta ${deltayz} remap units box"
change_box all y delta 0 ${delta} yz delta ${deltayz} remap units box
change_box all y delta 0 0.26213263830266 yz delta ${deltayz} remap units box
change_box all y delta 0 0.26213263830266 yz delta 0.00715529502250953 remap units box
Changing box ...
WARNING: Triclinic box skew is large. LAMMPS will run inefficiently. (src/domain.cpp:221)
  triclinic box = (-0.42552991 -0.35196396 -0.50073024) to (15.836977 13.016801 18.004169) with tilt (-7.6114743 -1.9305519 0.35776475)
WARNING: Triclinic box skew is large. LAMMPS will run inefficiently. (src/domain.cpp:221)
  triclinic box = (-0.42552991 -0.35196396 -0.50073024) to (15.836977 13.016801 18.004169) with tilt (-7.6114743 -1.9305519 0.36492005)
if "${dir} == 3" then    "change_box all z delta 0 ${delta} remap units box"
if "${dir} == 4" then    "change_box all yz delta ${delta} remap units box"
if "${dir} == 5" then    "change_box all xz delta ${delta} remap units box"
if "${dir} == 6" then    "change_box all xy delta ${delta} remap units box"

# Relax atoms positions

minimize ${etol} ${ftol} ${maxiter} ${maxeval}
minimize 0 ${ftol} ${maxiter} ${maxeval}
minimize 0 1e-10 ${maxiter} ${maxeval}
minimize 0 1e-10 100000 ${maxeval}
minimize 0 1e-10 100000 100000
Generated 28 of 28 mixed pair_coeff terms from arithmetic mixing rule
Neighbor list info ...
  update: every = 1 steps, delay = 0 steps, check = yes
  max neighbors/atom: 2000, page size: 100000
  master list distance cutoff = 7
  ghost atom cutoff = 7
  binsize = 3.5, bins = 8 4 6
  1 neighbor lists, perpetual/occasional/extra = 1 0 0
  (1) pair lj/cut, perpetual
      attributes: half, newton on
      pair build: half/bin/newton/tri
      stencil: half/bin/3d/tri
      bin: standard
WARNING: Inconsistent image flags
For more information see https://docs.lammps.org/err0027 (src/domain.cpp:1052)
Per MPI rank memory allocation (min/avg/max) = 19.47 | 19.47 | 19.47 Mbytes
   Step          Temp          E_pair         E_mol          TotEng         Press     
    250277   300.36833     -379.98566      183.00366      79.678357     -14456.785    
    250314   300.36833     -391.02183      89.812171     -24.549312     -2398.3727    
Loop time of 0.0222077 on 1 procs for 37 steps with 310 atoms

100.0% CPU use with 1 MPI tasks x 1 OpenMP threads

Minimization stats:
  Stopping criterion = linesearch alpha is zero
  Energy initial, next-to-last, final = 
     -196.981992947664  -301.209661764925  -301.209661764925
  Force two-norm initial, final = 185.16264 18.943156
  Force max component initial, final = 24.628879 3.3318031
  Final line search alpha, max atom move = 2.0258816e-11 6.7498385e-11
  Iterations, force evaluations = 37 131

MPI task timing breakdown:
Section |  min time  |  avg time  |  max time  |%varavg| %total
---------------------------------------------------------------
Pair    | 0.016353   | 0.016353   | 0.016353   |   0.0 | 73.64
Bond    | 0.0047566  | 0.0047566  | 0.0047566  |   0.0 | 21.42
Neigh   | 0          | 0          | 0          |   0.0 |  0.00
Comm    | 0.00062322 | 0.00062322 | 0.00062322 |   0.0 |  2.81
Output  | 0          | 0          | 0          |   0.0 |  0.00
Modify  | 0          | 0          | 0          |   0.0 |  0.00
Other   |            | 0.0004749  |            |       |  2.14

Nlocal:            310 ave         310 max         310 min
Histogram: 1 0 0 0 0 0 0 0 0 0
Nghost:           1896 ave        1896 max        1896 min
Histogram: 1 0 0 0 0 0 0 0 0 0
Neighs:          16130 ave       16130 max       16130 min
Histogram: 1 0 0 0 0 0 0 0 0 0

Total # of neighbors = 16130
Ave neighs/atom = 52.032258
Ave special neighs/atom = 5.8
Neighbor list builds = 0
Dangerous builds = 0

# Obtain new stress tensor

variable tmp equal pe
variable e1 equal ${tmp}
variable e1 equal -301.209661764925
variable tmp equal press
variable p1 equal ${tmp}
variable p1 equal -2398.37268178315
variable tmp equal pxx
variable pxx1 equal ${tmp}
variable pxx1 equal -2683.03206263848
variable tmp equal pyy
variable pyy1 equal ${tmp}
variable pyy1 equal -3215.10675814107
variable tmp equal pzz
variable pzz1 equal ${tmp}
variable pzz1 equal -1296.97922456992
variable tmp equal pxy
variable pxy1 equal ${tmp}
variable pxy1 equal 555.253181740294
variable tmp equal pxz
variable pxz1 equal ${tmp}
variable pxz1 equal 1465.79067922331
variable tmp equal pyz
variable pyz1 equal ${tmp}
variable pyz1 equal -1086.89934212391

# Compute elastic constant from pressure tensor

variable C1pos equal ${d1}
variable C1pos equal 29.5376115391725
variable C2pos equal ${d2}
variable C2pos equal 32.1659223885807
variable C3pos equal ${d3}
variable C3pos equal 23.7759817269645
variable C4pos equal ${d4}
variable C4pos equal -10.9037266742126
variable C5pos equal ${d5}
variable C5pos equal -1.9029765834688
variable C6pos equal ${d6}
variable C6pos equal -5.53638938902454

# Combine positive and negative

variable C1${dir} equal 0.5*(${C1neg}+${C1pos})
variable C12 equal 0.5*(${C1neg}+${C1pos})
variable C12 equal 0.5*(-16.4118093197537+${C1pos})
variable C12 equal 0.5*(-16.4118093197537+29.5376115391725)
variable C2${dir} equal 0.5*(${C2neg}+${C2pos})
variable C22 equal 0.5*(${C2neg}+${C2pos})
variable C22 equal 0.5*(9.0698894834077+${C2pos})
variable C22 equal 0.5*(9.0698894834077+32.1659223885807)
variable C3${dir} equal 0.5*(${C3neg}+${C3pos})
variable C32 equal 0.5*(${C3neg}+${C3pos})
variable C32 equal 0.5*(-13.2175188455327+${C3pos})
variable C32 equal 0.5*(-13.2175188455327+23.7759817269645)
variable C4${dir} equal 0.5*(${C4neg}+${C4pos})
variable C42 equal 0.5*(${C4neg}+${C4pos})
variable C42 equal 0.5*(10.3739723575559+${C4pos})
variable C42 equal 0.5*(10.3739723575559+-10.9037266742126)
variable C5${dir} equal 0.5*(${C5neg}+${C5pos})
variable C52 equal 0.5*(${C5neg}+${C5pos})
variable C52 equal 0.5*(-1.18116992725497+${C5pos})
variable C52 equal 0.5*(-1.18116992725497+-1.9029765834688)
variable C6${dir} equal 0.5*(${C6neg}+${C6pos})
variable C62 equal 0.5*(${C6neg}+${C6pos})
variable C62 equal 0.5*(0.855749367779185+${C6pos})
variable C62 equal 0.5*(0.855749367779185+-5.53638938902454)

# Delete dir to make sure it is not reused

variable dir delete

# uzz Perturbation

variable dir equal 3
include ./input/displace_333-RV-31-vasp.mod
if "${dir} == 1" then    "variable len0 equal ${lx0}"
if "${dir} == 2" then    "variable len0 equal ${ly0}"
if "${dir} == 3" then    "variable len0 equal ${lz0}"
variable len0 equal ${lz0}
variable len0 equal 18.5048994768807
if "${dir} == 4" then    "variable len0 equal ${lz0}"
if "${dir} == 5" then    "variable len0 equal ${lz0}"
if "${dir} == 6" then    "variable len0 equal ${ly0}"

# Reset box and simulation parameters

clear
OMP_NUM_THREADS environment is not set. Defaulting to 1 thread.
  using 1 OpenMP thread(s) per MPI task
box tilt large

The 'box' command has been removed and will be ignored

read_restart restart_333-RV-31-vasp.equil
Reading restart file ...
  restart file = 10 Sep 2025, LAMMPS = 10 Sep 2025
  restoring atom style full from restart
  triclinic box = (-0.42552991 -0.35196396 -0.50073024) to (15.836977 12.754668 18.004169) with tilt (-7.6114743 -1.9305519 0.35776475)
WARNING: Triclinic box skew is large. LAMMPS will run inefficiently. (src/domain.cpp:221)
  1 by 1 by 1 MPI processor grid
  restoring pair style lj/cut from restart
  restoring bond style harmonic from restart
  restoring angle style hybrid from restart
  restoring dihedral style harmonic from restart
  310 atoms
  315 bonds
  584 angles
  669 dihedrals
Finding 1-2 1-3 1-4 neighbors ...
  special bond factors lj:    0        0        1       
  special bond factors coul:  0        0        1       
     4 = max # of 1-2 neighbors
    10 = max # of 1-3 neighbors
    14 = max # of special neighbors
  special bonds CPU = 0.000 seconds
  read_restart CPU = 0.001 seconds
include ./input/angles_333-RV-31-vasp.mod
angle_style hybrid fourier cosine/periodic
angle_coeff 1 fourier 58.020602        0.343737        0.374972        0.281246
angle_coeff 2 fourier 83.380072        0.343737        0.374972        0.281246
angle_coeff 3 fourier 157.882480        0.343737        0.374972        0.281246
angle_coeff 4 fourier 221.735285        0.343737        0.374972        0.281246
angle_coeff 5 fourier 32.417871        0.343737        0.374972        0.281246
angle_coeff 6 fourier 114.246973        0.343737        0.374972        0.281246
angle_coeff 7 fourier 90.420412        0.343737        0.374972        0.281246
angle_coeff 8 fourier 75.498766        0.343737        0.374972        0.281246
angle_coeff 9 cosine/periodic 88.853997              -1               3

# Negative deformation

variable delta equal -${up}*${len0}
variable delta equal -0.02*${len0}
variable delta equal -0.02*18.5048994768807
variable deltaxy equal -${up}*xy
variable deltaxy equal -0.02*xy
variable deltaxz equal -${up}*xz
variable deltaxz equal -0.02*xz
variable deltayz equal -${up}*yz
variable deltayz equal -0.02*yz
if "${dir} == 1" then    "change_box all x delta 0 ${delta} xy delta ${deltaxy} xz delta ${deltaxz} remap units box"
if "${dir} == 2" then    "change_box all y delta 0 ${delta} yz delta ${deltayz} remap units box"
if "${dir} == 3" then    "change_box all z delta 0 ${delta} remap units box"
change_box all z delta 0 ${delta} remap units box
change_box all z delta 0 -0.370097989537614 remap units box
Changing box ...
WARNING: Triclinic box skew is large. LAMMPS will run inefficiently. (src/domain.cpp:221)
  triclinic box = (-0.42552991 -0.35196396 -0.50073024) to (15.836977 12.754668 17.634071) with tilt (-7.6114743 -1.9305519 0.35776475)
if "${dir} == 4" then    "change_box all yz delta ${delta} remap units box"
if "${dir} == 5" then    "change_box all xz delta ${delta} remap units box"
if "${dir} == 6" then    "change_box all xy delta ${delta} remap units box"

# Relax atoms positions

minimize ${etol} ${ftol} ${maxiter} ${maxeval}
minimize 0 ${ftol} ${maxiter} ${maxeval}
minimize 0 1e-10 ${maxiter} ${maxeval}
minimize 0 1e-10 100000 ${maxeval}
minimize 0 1e-10 100000 100000
Generated 28 of 28 mixed pair_coeff terms from arithmetic mixing rule
Neighbor list info ...
  update: every = 1 steps, delay = 0 steps, check = yes
  max neighbors/atom: 2000, page size: 100000
  master list distance cutoff = 7
  ghost atom cutoff = 7
  binsize = 3.5, bins = 8 4 6
  1 neighbor lists, perpetual/occasional/extra = 1 0 0
  (1) pair lj/cut, perpetual
      attributes: half, newton on
      pair build: half/bin/newton/tri
      stencil: half/bin/3d/tri
      bin: standard
WARNING: Inconsistent image flags
For more information see https://docs.lammps.org/err0027 (src/domain.cpp:1052)
Per MPI rank memory allocation (min/avg/max) = 19.47 | 19.47 | 19.47 Mbytes
   Step          Temp          E_pair         E_mol          TotEng         Press     
    250277   300.36833     -377.79959      180.64837      79.509131      21345.267    
    250314   300.36833     -400.36874      91.340124     -32.368261      1370.0819    
Loop time of 0.0234092 on 1 procs for 37 steps with 310 atoms

100.0% CPU use with 1 MPI tasks x 1 OpenMP threads

Minimization stats:
  Stopping criterion = linesearch alpha is zero
  Energy initial, next-to-last, final = 
     -197.151218909609  -309.028610701791  -309.028610701791
  Force two-norm initial, final = 199.04823 20.567186
  Force max component initial, final = 23.513684 3.6207207
  Final line search alpha, max atom move = 1.7708008e-11 6.4115752e-11
  Iterations, force evaluations = 37 131

MPI task timing breakdown:
Section |  min time  |  avg time  |  max time  |%varavg| %total
---------------------------------------------------------------
Pair    | 0.017366   | 0.017366   | 0.017366   |   0.0 | 74.18
Bond    | 0.0049004  | 0.0049004  | 0.0049004  |   0.0 | 20.93
Neigh   | 0          | 0          | 0          |   0.0 |  0.00
Comm    | 0.00067481 | 0.00067481 | 0.00067481 |   0.0 |  2.88
Output  | 0          | 0          | 0          |   0.0 |  0.00
Modify  | 0          | 0          | 0          |   0.0 |  0.00
Other   |            | 0.0004685  |            |       |  2.00

Nlocal:            310 ave         310 max         310 min
Histogram: 1 0 0 0 0 0 0 0 0 0
Nghost:           1956 ave        1956 max        1956 min
Histogram: 1 0 0 0 0 0 0 0 0 0
Neighs:          16759 ave       16759 max       16759 min
Histogram: 1 0 0 0 0 0 0 0 0 0

Total # of neighbors = 16759
Ave neighs/atom = 54.06129
Ave special neighs/atom = 5.8
Neighbor list builds = 0
Dangerous builds = 0

# Obtain new stress tensor

variable tmp equal pxx
variable pxx1 equal ${tmp}
variable pxx1 equal -310.949245681783
variable tmp equal pyy
variable pyy1 equal ${tmp}
variable pyy1 equal 1727.92164187981
variable tmp equal pzz
variable pzz1 equal ${tmp}
variable pzz1 equal 2693.27339585131
variable tmp equal pxy
variable pxy1 equal ${tmp}
variable pxy1 equal 211.37422144697
variable tmp equal pxz
variable pxz1 equal ${tmp}
variable pxz1 equal 1117.00753317014
variable tmp equal pyz
variable pyz1 equal ${tmp}
variable pyz1 equal -1358.61222592946

# Compute elastic constant from pressure tensor

variable C1neg equal ${d1}
variable C1neg equal -17.677197454389
variable C2neg equal ${d2}
variable C2neg equal -7.4507803884763
variable C3neg equal ${d3}
variable C3neg equal -3.8247186248583
variable C4neg equal ${d4}
variable C4neg equal 9.5451622551848
variable C5neg equal ${d5}
variable C5neg equal 0.15906085320295
variable C6neg equal ${d6}
variable C6neg equal 3.81699458755791

# Reset box and simulation parameters

clear
OMP_NUM_THREADS environment is not set. Defaulting to 1 thread.
  using 1 OpenMP thread(s) per MPI task
box tilt large

The 'box' command has been removed and will be ignored

read_restart restart_333-RV-31-vasp.equil
Reading restart file ...
  restart file = 10 Sep 2025, LAMMPS = 10 Sep 2025
  restoring atom style full from restart
  triclinic box = (-0.42552991 -0.35196396 -0.50073024) to (15.836977 12.754668 18.004169) with tilt (-7.6114743 -1.9305519 0.35776475)
WARNING: Triclinic box skew is large. LAMMPS will run inefficiently. (src/domain.cpp:221)
  1 by 1 by 1 MPI processor grid
  restoring pair style lj/cut from restart
  restoring bond style harmonic from restart
  restoring angle style hybrid from restart
  restoring dihedral style harmonic from restart
  310 atoms
  315 bonds
  584 angles
  669 dihedrals
Finding 1-2 1-3 1-4 neighbors ...
  special bond factors lj:    0        0        1       
  special bond factors coul:  0        0        1       
     4 = max # of 1-2 neighbors
    10 = max # of 1-3 neighbors
    14 = max # of special neighbors
  special bonds CPU = 0.000 seconds
  read_restart CPU = 0.001 seconds
include ./input/angles_333-RV-31-vasp.mod
angle_style hybrid fourier cosine/periodic
angle_coeff 1 fourier 58.020602        0.343737        0.374972        0.281246
angle_coeff 2 fourier 83.380072        0.343737        0.374972        0.281246
angle_coeff 3 fourier 157.882480        0.343737        0.374972        0.281246
angle_coeff 4 fourier 221.735285        0.343737        0.374972        0.281246
angle_coeff 5 fourier 32.417871        0.343737        0.374972        0.281246
angle_coeff 6 fourier 114.246973        0.343737        0.374972        0.281246
angle_coeff 7 fourier 90.420412        0.343737        0.374972        0.281246
angle_coeff 8 fourier 75.498766        0.343737        0.374972        0.281246
angle_coeff 9 cosine/periodic 88.853997              -1               3

# Positive deformation

variable delta equal ${up}*${len0}
variable delta equal 0.02*${len0}
variable delta equal 0.02*18.5048994768807
variable deltaxy equal ${up}*xy
variable deltaxy equal 0.02*xy
variable deltaxz equal ${up}*xz
variable deltaxz equal 0.02*xz
variable deltayz equal ${up}*yz
variable deltayz equal 0.02*yz
if "${dir} == 1" then    "change_box all x delta 0 ${delta} xy delta ${deltaxy} xz delta ${deltaxz} remap units box"
if "${dir} == 2" then    "change_box all y delta 0 ${delta} yz delta ${deltayz} remap units box"
if "${dir} == 3" then    "change_box all z delta 0 ${delta} remap units box"
change_box all z delta 0 ${delta} remap units box
change_box all z delta 0 0.370097989537614 remap units box
Changing box ...
WARNING: Triclinic box skew is large. LAMMPS will run inefficiently. (src/domain.cpp:221)
  triclinic box = (-0.42552991 -0.35196396 -0.50073024) to (15.836977 12.754668 18.374267) with tilt (-7.6114743 -1.9305519 0.35776475)
if "${dir} == 4" then    "change_box all yz delta ${delta} remap units box"
if "${dir} == 5" then    "change_box all xz delta ${delta} remap units box"
if "${dir} == 6" then    "change_box all xy delta ${delta} remap units box"

# Relax atoms positions

minimize ${etol} ${ftol} ${maxiter} ${maxeval}
minimize 0 ${ftol} ${maxiter} ${maxeval}
minimize 0 1e-10 ${maxiter} ${maxeval}
minimize 0 1e-10 100000 ${maxeval}
minimize 0 1e-10 100000 100000
Generated 28 of 28 mixed pair_coeff terms from arithmetic mixing rule
Neighbor list info ...
  update: every = 1 steps, delay = 0 steps, check = yes
  max neighbors/atom: 2000, page size: 100000
  master list distance cutoff = 7
  ghost atom cutoff = 7
  binsize = 3.5, bins = 8 4 6
  1 neighbor lists, perpetual/occasional/extra = 1 0 0
  (1) pair lj/cut, perpetual
      attributes: half, newton on
      pair build: half/bin/newton/tri
      stencil: half/bin/3d/tri
      bin: standard
WARNING: Inconsistent image flags
For more information see https://docs.lammps.org/err0027 (src/domain.cpp:1052)
Per MPI rank memory allocation (min/avg/max) = 19.47 | 19.47 | 19.47 Mbytes
   Step          Temp          E_pair         E_mol          TotEng         Press     
    250277   300.36833     -378.62309      182.25815      80.295414     -14344.344    
    250327   300.36833     -391.50375      86.203021     -28.640384     -1798.6232    
Loop time of 0.0285199 on 1 procs for 50 steps with 310 atoms

100.0% CPU use with 1 MPI tasks x 1 OpenMP threads

Minimization stats:
  Stopping criterion = linesearch alpha is zero
  Energy initial, next-to-last, final = 
     -196.364936198623  -305.300734085413  -305.300734085413
  Force two-norm initial, final = 193.34845 16.579918
  Force max component initial, final = 25.401481 3.028352
  Final line search alpha, max atom move = 3.2681281e-11 9.8970423e-11
  Iterations, force evaluations = 50 155

MPI task timing breakdown:
Section |  min time  |  avg time  |  max time  |%varavg| %total
---------------------------------------------------------------
Pair    | 0.019324   | 0.019324   | 0.019324   |   0.0 | 67.76
Bond    | 0.0057515  | 0.0057515  | 0.0057515  |   0.0 | 20.17
Neigh   | 0.002074   | 0.002074   | 0.002074   |   0.0 |  7.27
Comm    | 0.00076582 | 0.00076582 | 0.00076582 |   0.0 |  2.69
Output  | 0          | 0          | 0          |   0.0 |  0.00
Modify  | 0          | 0          | 0          |   0.0 |  0.00
Other   |            | 0.0006041  |            |       |  2.12

Nlocal:            310 ave         310 max         310 min
Histogram: 1 0 0 0 0 0 0 0 0 0
Nghost:           1906 ave        1906 max        1906 min
Histogram: 1 0 0 0 0 0 0 0 0 0
Neighs:          16105 ave       16105 max       16105 min
Histogram: 1 0 0 0 0 0 0 0 0 0

Total # of neighbors = 16105
Ave neighs/atom = 51.951613
Ave special neighs/atom = 5.8
Neighbor list builds = 1
Dangerous builds = 0

# Obtain new stress tensor

variable tmp equal pe
variable e1 equal ${tmp}
variable e1 equal -305.300734085413
variable tmp equal press
variable p1 equal ${tmp}
variable p1 equal -1798.6232332522
variable tmp equal pxx
variable pxx1 equal ${tmp}
variable pxx1 equal -2522.82871493304
variable tmp equal pyy
variable pyy1 equal ${tmp}
variable pyy1 equal -701.226957676404
variable tmp equal pzz
variable pzz1 equal ${tmp}
variable pzz1 equal -2171.81402714716
variable tmp equal pxy
variable pxy1 equal ${tmp}
variable pxy1 equal -49.116716843137
variable tmp equal pxz
variable pxz1 equal ${tmp}
variable pxz1 equal 883.674060301031
variable tmp equal pyz
variable pyz1 equal ${tmp}
variable pyz1 equal -1596.36578512771

# Compute elastic constant from pressure tensor

variable C1pos equal ${d1}
variable C1pos equal 28.7365948006453
variable C2pos equal ${d2}
variable C2pos equal 19.5965233862574
variable C3pos equal ${d3}
variable C3pos equal 28.1501557398506
variable C4pos equal ${d4}
variable C4pos equal -8.35639445919355
variable C5pos equal ${d5}
variable C5pos equal 1.0076065111426
variable C6pos equal ${d6}
variable C6pos equal -2.51453989610738

# Combine positive and negative

variable C1${dir} equal 0.5*(${C1neg}+${C1pos})
variable C13 equal 0.5*(${C1neg}+${C1pos})
variable C13 equal 0.5*(-17.677197454389+${C1pos})
variable C13 equal 0.5*(-17.677197454389+28.7365948006453)
variable C2${dir} equal 0.5*(${C2neg}+${C2pos})
variable C23 equal 0.5*(${C2neg}+${C2pos})
variable C23 equal 0.5*(-7.4507803884763+${C2pos})
variable C23 equal 0.5*(-7.4507803884763+19.5965233862574)
variable C3${dir} equal 0.5*(${C3neg}+${C3pos})
variable C33 equal 0.5*(${C3neg}+${C3pos})
variable C33 equal 0.5*(-3.8247186248583+${C3pos})
variable C33 equal 0.5*(-3.8247186248583+28.1501557398506)
variable C4${dir} equal 0.5*(${C4neg}+${C4pos})
variable C43 equal 0.5*(${C4neg}+${C4pos})
variable C43 equal 0.5*(9.5451622551848+${C4pos})
variable C43 equal 0.5*(9.5451622551848+-8.35639445919355)
variable C5${dir} equal 0.5*(${C5neg}+${C5pos})
variable C53 equal 0.5*(${C5neg}+${C5pos})
variable C53 equal 0.5*(0.15906085320295+${C5pos})
variable C53 equal 0.5*(0.15906085320295+1.0076065111426)
variable C6${dir} equal 0.5*(${C6neg}+${C6pos})
variable C63 equal 0.5*(${C6neg}+${C6pos})
variable C63 equal 0.5*(3.81699458755791+${C6pos})
variable C63 equal 0.5*(3.81699458755791+-2.51453989610738)

# Delete dir to make sure it is not reused

variable dir delete

# uyz Perturbation

variable dir equal 4
include ./input/displace_333-RV-31-vasp.mod
if "${dir} == 1" then    "variable len0 equal ${lx0}"
if "${dir} == 2" then    "variable len0 equal ${ly0}"
if "${dir} == 3" then    "variable len0 equal ${lz0}"
if "${dir} == 4" then    "variable len0 equal ${lz0}"
variable len0 equal ${lz0}
variable len0 equal 18.5048994768807
if "${dir} == 5" then    "variable len0 equal ${lz0}"
if "${dir} == 6" then    "variable len0 equal ${ly0}"

# Reset box and simulation parameters

clear
OMP_NUM_THREADS environment is not set. Defaulting to 1 thread.
  using 1 OpenMP thread(s) per MPI task
box tilt large

The 'box' command has been removed and will be ignored

read_restart restart_333-RV-31-vasp.equil
Reading restart file ...
  restart file = 10 Sep 2025, LAMMPS = 10 Sep 2025
  restoring atom style full from restart
  triclinic box = (-0.42552991 -0.35196396 -0.50073024) to (15.836977 12.754668 18.004169) with tilt (-7.6114743 -1.9305519 0.35776475)
WARNING: Triclinic box skew is large. LAMMPS will run inefficiently. (src/domain.cpp:221)
  1 by 1 by 1 MPI processor grid
  restoring pair style lj/cut from restart
  restoring bond style harmonic from restart
  restoring angle style hybrid from restart
  restoring dihedral style harmonic from restart
  310 atoms
  315 bonds
  584 angles
  669 dihedrals
Finding 1-2 1-3 1-4 neighbors ...
  special bond factors lj:    0        0        1       
  special bond factors coul:  0        0        1       
     4 = max # of 1-2 neighbors
    10 = max # of 1-3 neighbors
    14 = max # of special neighbors
  special bonds CPU = 0.000 seconds
  read_restart CPU = 0.002 seconds
include ./input/angles_333-RV-31-vasp.mod
angle_style hybrid fourier cosine/periodic
angle_coeff 1 fourier 58.020602        0.343737        0.374972        0.281246
angle_coeff 2 fourier 83.380072        0.343737        0.374972        0.281246
angle_coeff 3 fourier 157.882480        0.343737        0.374972        0.281246
angle_coeff 4 fourier 221.735285        0.343737        0.374972        0.281246
angle_coeff 5 fourier 32.417871        0.343737        0.374972        0.281246
angle_coeff 6 fourier 114.246973        0.343737        0.374972        0.281246
angle_coeff 7 fourier 90.420412        0.343737        0.374972        0.281246
angle_coeff 8 fourier 75.498766        0.343737        0.374972        0.281246
angle_coeff 9 cosine/periodic 88.853997              -1               3

# Negative deformation

variable delta equal -${up}*${len0}
variable delta equal -0.02*${len0}
variable delta equal -0.02*18.5048994768807
variable deltaxy equal -${up}*xy
variable deltaxy equal -0.02*xy
variable deltaxz equal -${up}*xz
variable deltaxz equal -0.02*xz
variable deltayz equal -${up}*yz
variable deltayz equal -0.02*yz
if "${dir} == 1" then    "change_box all x delta 0 ${delta} xy delta ${deltaxy} xz delta ${deltaxz} remap units box"
if "${dir} == 2" then    "change_box all y delta 0 ${delta} yz delta ${deltayz} remap units box"
if "${dir} == 3" then    "change_box all z delta 0 ${delta} remap units box"
if "${dir} == 4" then    "change_box all yz delta ${delta} remap units box"
change_box all yz delta ${delta} remap units box
change_box all yz delta -0.370097989537614 remap units box
Changing box ...
WARNING: Triclinic box skew is large. LAMMPS will run inefficiently. (src/domain.cpp:221)
  triclinic box = (-0.42552991 -0.35196396 -0.50073024) to (15.836977 12.754668 18.004169) with tilt (-7.6114743 -1.9305519 -0.012333238)
if "${dir} == 5" then    "change_box all xz delta ${delta} remap units box"
if "${dir} == 6" then    "change_box all xy delta ${delta} remap units box"

# Relax atoms positions

minimize ${etol} ${ftol} ${maxiter} ${maxeval}
minimize 0 ${ftol} ${maxiter} ${maxeval}
minimize 0 1e-10 ${maxiter} ${maxeval}
minimize 0 1e-10 100000 ${maxeval}
minimize 0 1e-10 100000 100000
Generated 28 of 28 mixed pair_coeff terms from arithmetic mixing rule
Neighbor list info ...
  update: every = 1 steps, delay = 0 steps, check = yes
  max neighbors/atom: 2000, page size: 100000
  master list distance cutoff = 7
  ghost atom cutoff = 7
  binsize = 3.5, bins = 8 4 6
  1 neighbor lists, perpetual/occasional/extra = 1 0 0
  (1) pair lj/cut, perpetual
      attributes: half, newton on
      pair build: half/bin/newton/tri
      stencil: half/bin/3d/tri
      bin: standard
WARNING: Inconsistent image flags
For more information see https://docs.lammps.org/err0027 (src/domain.cpp:1052)
Per MPI rank memory allocation (min/avg/max) = 19.47 | 19.47 | 19.47 Mbytes
   Step          Temp          E_pair         E_mol          TotEng         Press     
    250277   300.36833     -378.35281      165.02604      63.333582      2948.1619    
    250324   300.36833     -397.62889      87.009754     -33.958787     -609.75107    
Loop time of 0.0242532 on 1 procs for 47 steps with 310 atoms

100.0% CPU use with 1 MPI tasks x 1 OpenMP threads

Minimization stats:
  Stopping criterion = linesearch alpha is zero
  Energy initial, next-to-last, final = 
     -213.326768139925  -310.619137355871  -310.619137355871
  Force two-norm initial, final = 149.73268 15.926614
  Force max component initial, final = 18.138395 3.3234639
  Final line search alpha, max atom move = 3.4421503e-11 1.1439862e-10
  Iterations, force evaluations = 47 149

MPI task timing breakdown:
Section |  min time  |  avg time  |  max time  |%varavg| %total
---------------------------------------------------------------
Pair    | 0.017858   | 0.017858   | 0.017858   |   0.0 | 73.63
Bond    | 0.0051211  | 0.0051211  | 0.0051211  |   0.0 | 21.12
Neigh   | 0          | 0          | 0          |   0.0 |  0.00
Comm    | 0.00071364 | 0.00071364 | 0.00071364 |   0.0 |  2.94
Output  | 0          | 0          | 0          |   0.0 |  0.00
Modify  | 0          | 0          | 0          |   0.0 |  0.00
Other   |            | 0.0005601  |            |       |  2.31

Nlocal:            310 ave         310 max         310 min
Histogram: 1 0 0 0 0 0 0 0 0 0
Nghost:           1926 ave        1926 max        1926 min
Histogram: 1 0 0 0 0 0 0 0 0 0
Neighs:          16445 ave       16445 max       16445 min
Histogram: 1 0 0 0 0 0 0 0 0 0

Total # of neighbors = 16445
Ave neighs/atom = 53.048387
Ave special neighs/atom = 5.8
Neighbor list builds = 0
Dangerous builds = 0

# Obtain new stress tensor

variable tmp equal pxx
variable pxx1 equal ${tmp}
variable pxx1 equal -1636.56963794646
variable tmp equal pyy
variable pyy1 equal ${tmp}
variable pyy1 equal -107.875500090696
variable tmp equal pzz
variable pzz1 equal ${tmp}
variable pzz1 equal -84.8080684215449
variable tmp equal pxy
variable pxy1 equal ${tmp}
variable pxy1 equal 96.1820860416002
variable tmp equal pxz
variable pxz1 equal ${tmp}
variable pxz1 equal 1143.96557273928
variable tmp equal pyz
variable pyz1 equal ${tmp}
variable pyz1 equal -748.500072138278

# Compute elastic constant from pressure tensor

variable C1neg equal ${d1}
variable C1neg equal -24.3052994157124
variable C2neg equal ${d2}
variable C2neg equal -16.6297660983288
variable C3neg equal ${d3}
variable C3neg equal -17.7151259462226
variable C4neg equal ${d4}
variable C4neg equal 12.5957230241407
variable C5neg equal ${d5}
variable C5neg equal 0.29385105104865
variable C6neg equal ${d6}
variable C6neg equal 3.24103391053107

# Reset box and simulation parameters

clear
OMP_NUM_THREADS environment is not set. Defaulting to 1 thread.
  using 1 OpenMP thread(s) per MPI task
box tilt large

The 'box' command has been removed and will be ignored

read_restart restart_333-RV-31-vasp.equil
Reading restart file ...
  restart file = 10 Sep 2025, LAMMPS = 10 Sep 2025
  restoring atom style full from restart
  triclinic box = (-0.42552991 -0.35196396 -0.50073024) to (15.836977 12.754668 18.004169) with tilt (-7.6114743 -1.9305519 0.35776475)
WARNING: Triclinic box skew is large. LAMMPS will run inefficiently. (src/domain.cpp:221)
  1 by 1 by 1 MPI processor grid
  restoring pair style lj/cut from restart
  restoring bond style harmonic from restart
  restoring angle style hybrid from restart
  restoring dihedral style harmonic from restart
  310 atoms
  315 bonds
  584 angles
  669 dihedrals
Finding 1-2 1-3 1-4 neighbors ...
  special bond factors lj:    0        0        1       
  special bond factors coul:  0        0        1       
     4 = max # of 1-2 neighbors
    10 = max # of 1-3 neighbors
    14 = max # of special neighbors
  special bonds CPU = 0.000 seconds
  read_restart CPU = 0.001 seconds
include ./input/angles_333-RV-31-vasp.mod
angle_style hybrid fourier cosine/periodic
angle_coeff 1 fourier 58.020602        0.343737        0.374972        0.281246
angle_coeff 2 fourier 83.380072        0.343737        0.374972        0.281246
angle_coeff 3 fourier 157.882480        0.343737        0.374972        0.281246
angle_coeff 4 fourier 221.735285        0.343737        0.374972        0.281246
angle_coeff 5 fourier 32.417871        0.343737        0.374972        0.281246
angle_coeff 6 fourier 114.246973        0.343737        0.374972        0.281246
angle_coeff 7 fourier 90.420412        0.343737        0.374972        0.281246
angle_coeff 8 fourier 75.498766        0.343737        0.374972        0.281246
angle_coeff 9 cosine/periodic 88.853997              -1               3

# Positive deformation

variable delta equal ${up}*${len0}
variable delta equal 0.02*${len0}
variable delta equal 0.02*18.5048994768807
variable deltaxy equal ${up}*xy
variable deltaxy equal 0.02*xy
variable deltaxz equal ${up}*xz
variable deltaxz equal 0.02*xz
variable deltayz equal ${up}*yz
variable deltayz equal 0.02*yz
if "${dir} == 1" then    "change_box all x delta 0 ${delta} xy delta ${deltaxy} xz delta ${deltaxz} remap units box"
if "${dir} == 2" then    "change_box all y delta 0 ${delta} yz delta ${deltayz} remap units box"
if "${dir} == 3" then    "change_box all z delta 0 ${delta} remap units box"
if "${dir} == 4" then    "change_box all yz delta ${delta} remap units box"
change_box all yz delta ${delta} remap units box
change_box all yz delta 0.370097989537614 remap units box
Changing box ...
WARNING: Triclinic box skew is large. LAMMPS will run inefficiently. (src/domain.cpp:221)
  triclinic box = (-0.42552991 -0.35196396 -0.50073024) to (15.836977 12.754668 18.004169) with tilt (-7.6114743 -1.9305519 0.72786274)
if "${dir} == 5" then    "change_box all xz delta ${delta} remap units box"
if "${dir} == 6" then    "change_box all xy delta ${delta} remap units box"

# Relax atoms positions

minimize ${etol} ${ftol} ${maxiter} ${maxeval}
minimize 0 ${ftol} ${maxiter} ${maxeval}
minimize 0 1e-10 ${maxiter} ${maxeval}
minimize 0 1e-10 100000 ${maxeval}
minimize 0 1e-10 100000 100000
Generated 28 of 28 mixed pair_coeff terms from arithmetic mixing rule
Neighbor list info ...
  update: every = 1 steps, delay = 0 steps, check = yes
  max neighbors/atom: 2000, page size: 100000
  master list distance cutoff = 7
  ghost atom cutoff = 7
  binsize = 3.5, bins = 8 4 6
  1 neighbor lists, perpetual/occasional/extra = 1 0 0
  (1) pair lj/cut, perpetual
      attributes: half, newton on
      pair build: half/bin/newton/tri
      stencil: half/bin/3d/tri
      bin: standard
WARNING: Inconsistent image flags
For more information see https://docs.lammps.org/err0027 (src/domain.cpp:1052)
Per MPI rank memory allocation (min/avg/max) = 19.47 | 19.47 | 19.47 Mbytes
   Step          Temp          E_pair         E_mol          TotEng         Press     
    250277   300.36833     -378.55133      172.61926      70.728279      3348.0131    
    250303   300.36833     -395.26999      94.371605     -24.238038     -355.78306    
Loop time of 0.017355 on 1 procs for 26 steps with 310 atoms

100.0% CPU use with 1 MPI tasks x 1 OpenMP threads

Minimization stats:
  Stopping criterion = linesearch alpha is zero
  Energy initial, next-to-last, final = 
     -205.932070476531  -300.898387885948  -300.898387885948
  Force two-norm initial, final = 154.3517 27.134
  Force max component initial, final = 20.616325 5.5304581
  Final line search alpha, max atom move = 1.375272e-11 7.6058841e-11
  Iterations, force evaluations = 26 109

MPI task timing breakdown:
Section |  min time  |  avg time  |  max time  |%varavg| %total
---------------------------------------------------------------
Pair    | 0.0128     | 0.0128     | 0.0128     |   0.0 | 73.76
Bond    | 0.0037171  | 0.0037171  | 0.0037171  |   0.0 | 21.42
Neigh   | 0          | 0          | 0          |   0.0 |  0.00
Comm    | 0.0004865  | 0.0004865  | 0.0004865  |   0.0 |  2.80
Output  | 0          | 0          | 0          |   0.0 |  0.00
Modify  | 0          | 0          | 0          |   0.0 |  0.00
Other   |            | 0.0003511  |            |       |  2.02

Nlocal:            310 ave         310 max         310 min
Histogram: 1 0 0 0 0 0 0 0 0 0
Nghost:           1922 ave        1922 max        1922 min
Histogram: 1 0 0 0 0 0 0 0 0 0
Neighs:          16442 ave       16442 max       16442 min
Histogram: 1 0 0 0 0 0 0 0 0 0

Total # of neighbors = 16442
Ave neighs/atom = 53.03871
Ave special neighs/atom = 5.8
Neighbor list builds = 0
Dangerous builds = 0

# Obtain new stress tensor

variable tmp equal pe
variable e1 equal ${tmp}
variable e1 equal -300.898387885948
variable tmp equal press
variable p1 equal ${tmp}
variable p1 equal -355.783063659252
variable tmp equal pxx
variable pxx1 equal ${tmp}
variable pxx1 equal -1254.77352556388
variable tmp equal pyy
variable pyy1 equal ${tmp}
variable pyy1 equal -12.3088805428715
variable tmp equal pzz
variable pzz1 equal ${tmp}
variable pzz1 equal 199.733215129
variable tmp equal pxy
variable pxy1 equal ${tmp}
variable pxy1 equal -119.355157759305
variable tmp equal pxz
variable pxz1 equal ${tmp}
variable pxz1 equal 790.778771933631
variable tmp equal pyz
variable pyz1 equal ${tmp}
variable pyz1 equal -1918.85545890693

# Compute elastic constant from pressure tensor

variable C1pos equal ${d1}
variable C1pos equal 22.3963188537995
variable C2pos equal ${d2}
variable C2pos equal 16.1519330005897
variable C3pos equal ${d3}
variable C3pos equal 16.2924195284698
variable C4pos equal ${d4}
variable C4pos equal -6.74394609029745
variable C5pos equal ${d5}
variable C5pos equal 1.4720829529796
variable C6pos equal ${d6}
variable C6pos equal -2.16334769152654

# Combine positive and negative

variable C1${dir} equal 0.5*(${C1neg}+${C1pos})
variable C14 equal 0.5*(${C1neg}+${C1pos})
variable C14 equal 0.5*(-24.3052994157124+${C1pos})
variable C14 equal 0.5*(-24.3052994157124+22.3963188537995)
variable C2${dir} equal 0.5*(${C2neg}+${C2pos})
variable C24 equal 0.5*(${C2neg}+${C2pos})
variable C24 equal 0.5*(-16.6297660983288+${C2pos})
variable C24 equal 0.5*(-16.6297660983288+16.1519330005897)
variable C3${dir} equal 0.5*(${C3neg}+${C3pos})
variable C34 equal 0.5*(${C3neg}+${C3pos})
variable C34 equal 0.5*(-17.7151259462226+${C3pos})
variable C34 equal 0.5*(-17.7151259462226+16.2924195284698)
variable C4${dir} equal 0.5*(${C4neg}+${C4pos})
variable C44 equal 0.5*(${C4neg}+${C4pos})
variable C44 equal 0.5*(12.5957230241407+${C4pos})
variable C44 equal 0.5*(12.5957230241407+-6.74394609029745)
variable C5${dir} equal 0.5*(${C5neg}+${C5pos})
variable C54 equal 0.5*(${C5neg}+${C5pos})
variable C54 equal 0.5*(0.29385105104865+${C5pos})
variable C54 equal 0.5*(0.29385105104865+1.4720829529796)
variable C6${dir} equal 0.5*(${C6neg}+${C6pos})
variable C64 equal 0.5*(${C6neg}+${C6pos})
variable C64 equal 0.5*(3.24103391053107+${C6pos})
variable C64 equal 0.5*(3.24103391053107+-2.16334769152654)

# Delete dir to make sure it is not reused

variable dir delete

# uxz Perturbation

variable dir equal 5
include ./input/displace_333-RV-31-vasp.mod
if "${dir} == 1" then    "variable len0 equal ${lx0}"
if "${dir} == 2" then    "variable len0 equal ${ly0}"
if "${dir} == 3" then    "variable len0 equal ${lz0}"
if "${dir} == 4" then    "variable len0 equal ${lz0}"
if "${dir} == 5" then    "variable len0 equal ${lz0}"
variable len0 equal ${lz0}
variable len0 equal 18.5048994768807
if "${dir} == 6" then    "variable len0 equal ${ly0}"

# Reset box and simulation parameters

clear
OMP_NUM_THREADS environment is not set. Defaulting to 1 thread.
  using 1 OpenMP thread(s) per MPI task
box tilt large

The 'box' command has been removed and will be ignored

read_restart restart_333-RV-31-vasp.equil
Reading restart file ...
  restart file = 10 Sep 2025, LAMMPS = 10 Sep 2025
  restoring atom style full from restart
  triclinic box = (-0.42552991 -0.35196396 -0.50073024) to (15.836977 12.754668 18.004169) with tilt (-7.6114743 -1.9305519 0.35776475)
WARNING: Triclinic box skew is large. LAMMPS will run inefficiently. (src/domain.cpp:221)
  1 by 1 by 1 MPI processor grid
  restoring pair style lj/cut from restart
  restoring bond style harmonic from restart
  restoring angle style hybrid from restart
  restoring dihedral style harmonic from restart
  310 atoms
  315 bonds
  584 angles
  669 dihedrals
Finding 1-2 1-3 1-4 neighbors ...
  special bond factors lj:    0        0        1       
  special bond factors coul:  0        0        1       
     4 = max # of 1-2 neighbors
    10 = max # of 1-3 neighbors
    14 = max # of special neighbors
  special bonds CPU = 0.000 seconds
  read_restart CPU = 0.001 seconds
include ./input/angles_333-RV-31-vasp.mod
angle_style hybrid fourier cosine/periodic
angle_coeff 1 fourier 58.020602        0.343737        0.374972        0.281246
angle_coeff 2 fourier 83.380072        0.343737        0.374972        0.281246
angle_coeff 3 fourier 157.882480        0.343737        0.374972        0.281246
angle_coeff 4 fourier 221.735285        0.343737        0.374972        0.281246
angle_coeff 5 fourier 32.417871        0.343737        0.374972        0.281246
angle_coeff 6 fourier 114.246973        0.343737        0.374972        0.281246
angle_coeff 7 fourier 90.420412        0.343737        0.374972        0.281246
angle_coeff 8 fourier 75.498766        0.343737        0.374972        0.281246
angle_coeff 9 cosine/periodic 88.853997              -1               3

# Negative deformation

variable delta equal -${up}*${len0}
variable delta equal -0.02*${len0}
variable delta equal -0.02*18.5048994768807
variable deltaxy equal -${up}*xy
variable deltaxy equal -0.02*xy
variable deltaxz equal -${up}*xz
variable deltaxz equal -0.02*xz
variable deltayz equal -${up}*yz
variable deltayz equal -0.02*yz
if "${dir} == 1" then    "change_box all x delta 0 ${delta} xy delta ${deltaxy} xz delta ${deltaxz} remap units box"
if "${dir} == 2" then    "change_box all y delta 0 ${delta} yz delta ${deltayz} remap units box"
if "${dir} == 3" then    "change_box all z delta 0 ${delta} remap units box"
if "${dir} == 4" then    "change_box all yz delta ${delta} remap units box"
if "${dir} == 5" then    "change_box all xz delta ${delta} remap units box"
change_box all xz delta ${delta} remap units box
change_box all xz delta -0.370097989537614 remap units box
Changing box ...
WARNING: Triclinic box skew is large. LAMMPS will run inefficiently. (src/domain.cpp:221)
  triclinic box = (-0.42552991 -0.35196396 -0.50073024) to (15.836977 12.754668 18.004169) with tilt (-7.6114743 -2.3006499 0.35776475)
if "${dir} == 6" then    "change_box all xy delta ${delta} remap units box"

# Relax atoms positions

minimize ${etol} ${ftol} ${maxiter} ${maxeval}
minimize 0 ${ftol} ${maxiter} ${maxeval}
minimize 0 1e-10 ${maxiter} ${maxeval}
minimize 0 1e-10 100000 ${maxeval}
minimize 0 1e-10 100000 100000
Generated 28 of 28 mixed pair_coeff terms from arithmetic mixing rule
Neighbor list info ...
  update: every = 1 steps, delay = 0 steps, check = yes
  max neighbors/atom: 2000, page size: 100000
  master list distance cutoff = 7
  ghost atom cutoff = 7
  binsize = 3.5, bins = 8 4 6
  1 neighbor lists, perpetual/occasional/extra = 1 0 0
  (1) pair lj/cut, perpetual
      attributes: half, newton on
      pair build: half/bin/newton/tri
      stencil: half/bin/3d/tri
      bin: standard
WARNING: Inconsistent image flags
For more information see https://docs.lammps.org/err0027 (src/domain.cpp:1052)
Per MPI rank memory allocation (min/avg/max) = 19.47 | 19.47 | 19.47 Mbytes
   Step          Temp          E_pair         E_mol          TotEng         Press     
    250277   300.36833     -377.88597      169.26801      68.042389      2453.1268    
    250325   300.36833     -396.55723      87.745505     -32.151378     -549.63014    
Loop time of 0.0263094 on 1 procs for 48 steps with 310 atoms

100.0% CPU use with 1 MPI tasks x 1 OpenMP threads

Minimization stats:
  Stopping criterion = linesearch alpha is zero
  Energy initial, next-to-last, final = 
     -208.617961088798   -308.81172833418   -308.81172833418
  Force two-norm initial, final = 150.47442 15.89289
  Force max component initial, final = 17.761863 2.1324289
  Final line search alpha, max atom move = 3.2318064e-11 6.8915974e-11
  Iterations, force evaluations = 48 151

MPI task timing breakdown:
Section |  min time  |  avg time  |  max time  |%varavg| %total
---------------------------------------------------------------
Pair    | 0.019383   | 0.019383   | 0.019383   |   0.0 | 73.67
Bond    | 0.0055994  | 0.0055994  | 0.0055994  |   0.0 | 21.28
Neigh   | 0          | 0          | 0          |   0.0 |  0.00
Comm    | 0.00075441 | 0.00075441 | 0.00075441 |   0.0 |  2.87
Output  | 0          | 0          | 0          |   0.0 |  0.00
Modify  | 0          | 0          | 0          |   0.0 |  0.00
Other   |            | 0.000573   |            |       |  2.18

Nlocal:            310 ave         310 max         310 min
Histogram: 1 0 0 0 0 0 0 0 0 0
Nghost:           1926 ave        1926 max        1926 min
Histogram: 1 0 0 0 0 0 0 0 0 0
Neighs:          16447 ave       16447 max       16447 min
Histogram: 1 0 0 0 0 0 0 0 0 0

Total # of neighbors = 16447
Ave neighs/atom = 53.054839
Ave special neighs/atom = 5.8
Neighbor list builds = 0
Dangerous builds = 0

# Obtain new stress tensor

variable tmp equal pxx
variable pxx1 equal ${tmp}
variable pxx1 equal -1803.58537026627
variable tmp equal pyy
variable pyy1 equal ${tmp}
variable pyy1 equal 138.648143326253
variable tmp equal pzz
variable pzz1 equal ${tmp}
variable pzz1 equal 16.0468054755064
variable tmp equal pxy
variable pxy1 equal ${tmp}
variable pxy1 equal 65.182240750627
variable tmp equal pxz
variable pxz1 equal ${tmp}
variable pxz1 equal 1746.23895501198
variable tmp equal pyz
variable pyz1 equal ${tmp}
variable pyz1 equal -1563.85800900274

# Compute elastic constant from pressure tensor

variable C1neg equal ${d1}
variable C1neg equal -25.1403780773114
variable C2neg equal ${d2}
variable C2neg equal -15.3971478812441
variable C3neg equal ${d3}
variable C3neg equal -17.2108515767373
variable C4neg equal ${d4}
variable C4neg equal 8.5189333398184
variable C5neg equal ${d5}
variable C5neg equal 3.30521796241215
variable C6neg equal ${d6}
variable C6neg equal 3.0860346840762

# Reset box and simulation parameters

clear
OMP_NUM_THREADS environment is not set. Defaulting to 1 thread.
  using 1 OpenMP thread(s) per MPI task
box tilt large

The 'box' command has been removed and will be ignored

read_restart restart_333-RV-31-vasp.equil
Reading restart file ...
  restart file = 10 Sep 2025, LAMMPS = 10 Sep 2025
  restoring atom style full from restart
  triclinic box = (-0.42552991 -0.35196396 -0.50073024) to (15.836977 12.754668 18.004169) with tilt (-7.6114743 -1.9305519 0.35776475)
WARNING: Triclinic box skew is large. LAMMPS will run inefficiently. (src/domain.cpp:221)
  1 by 1 by 1 MPI processor grid
  restoring pair style lj/cut from restart
  restoring bond style harmonic from restart
  restoring angle style hybrid from restart
  restoring dihedral style harmonic from restart
  310 atoms
  315 bonds
  584 angles
  669 dihedrals
Finding 1-2 1-3 1-4 neighbors ...
  special bond factors lj:    0        0        1       
  special bond factors coul:  0        0        1       
     4 = max # of 1-2 neighbors
    10 = max # of 1-3 neighbors
    14 = max # of special neighbors
  special bonds CPU = 0.000 seconds
  read_restart CPU = 0.001 seconds
include ./input/angles_333-RV-31-vasp.mod
angle_style hybrid fourier cosine/periodic
angle_coeff 1 fourier 58.020602        0.343737        0.374972        0.281246
angle_coeff 2 fourier 83.380072        0.343737        0.374972        0.281246
angle_coeff 3 fourier 157.882480        0.343737        0.374972        0.281246
angle_coeff 4 fourier 221.735285        0.343737        0.374972        0.281246
angle_coeff 5 fourier 32.417871        0.343737        0.374972        0.281246
angle_coeff 6 fourier 114.246973        0.343737        0.374972        0.281246
angle_coeff 7 fourier 90.420412        0.343737        0.374972        0.281246
angle_coeff 8 fourier 75.498766        0.343737        0.374972        0.281246
angle_coeff 9 cosine/periodic 88.853997              -1               3

# Positive deformation

variable delta equal ${up}*${len0}
variable delta equal 0.02*${len0}
variable delta equal 0.02*18.5048994768807
variable deltaxy equal ${up}*xy
variable deltaxy equal 0.02*xy
variable deltaxz equal ${up}*xz
variable deltaxz equal 0.02*xz
variable deltayz equal ${up}*yz
variable deltayz equal 0.02*yz
if "${dir} == 1" then    "change_box all x delta 0 ${delta} xy delta ${deltaxy} xz delta ${deltaxz} remap units box"
if "${dir} == 2" then    "change_box all y delta 0 ${delta} yz delta ${deltayz} remap units box"
if "${dir} == 3" then    "change_box all z delta 0 ${delta} remap units box"
if "${dir} == 4" then    "change_box all yz delta ${delta} remap units box"
if "${dir} == 5" then    "change_box all xz delta ${delta} remap units box"
change_box all xz delta ${delta} remap units box
change_box all xz delta 0.370097989537614 remap units box
Changing box ...
WARNING: Triclinic box skew is large. LAMMPS will run inefficiently. (src/domain.cpp:221)
  triclinic box = (-0.42552991 -0.35196396 -0.50073024) to (15.836977 12.754668 18.004169) with tilt (-7.6114743 -1.5604539 0.35776475)
if "${dir} == 6" then    "change_box all xy delta ${delta} remap units box"

# Relax atoms positions

minimize ${etol} ${ftol} ${maxiter} ${maxeval}
minimize 0 ${ftol} ${maxiter} ${maxeval}
minimize 0 1e-10 ${maxiter} ${maxeval}
minimize 0 1e-10 100000 ${maxeval}
minimize 0 1e-10 100000 100000
Generated 28 of 28 mixed pair_coeff terms from arithmetic mixing rule
Neighbor list info ...
  update: every = 1 steps, delay = 0 steps, check = yes
  max neighbors/atom: 2000, page size: 100000
  master list distance cutoff = 7
  ghost atom cutoff = 7
  binsize = 3.5, bins = 8 4 6
  1 neighbor lists, perpetual/occasional/extra = 1 0 0
  (1) pair lj/cut, perpetual
      attributes: half, newton on
      pair build: half/bin/newton/tri
      stencil: half/bin/3d/tri
      bin: standard
WARNING: Inconsistent image flags
For more information see https://docs.lammps.org/err0027 (src/domain.cpp:1052)
Per MPI rank memory allocation (min/avg/max) = 19.47 | 19.47 | 19.47 Mbytes
   Step          Temp          E_pair         E_mol          TotEng         Press     
    250277   300.36833     -379.09434      167.61707      65.183079      3838.8647    
    250318   300.36833     -396.92164      88.400592     -31.860699     -488.49746    
Loop time of 0.0235256 on 1 procs for 41 steps with 310 atoms

100.0% CPU use with 1 MPI tasks x 1 OpenMP threads

Minimization stats:
  Stopping criterion = linesearch alpha is zero
  Energy initial, next-to-last, final = 
     -211.477270644645   -308.52104911659   -308.52104911659
  Force two-norm initial, final = 151.3458 18.947435
  Force max component initial, final = 17.524081 2.7800309
  Final line search alpha, max atom move = 3.1510009e-11 8.7598798e-11
  Iterations, force evaluations = 41 137

MPI task timing breakdown:
Section |  min time  |  avg time  |  max time  |%varavg| %total
---------------------------------------------------------------
Pair    | 0.017353   | 0.017353   | 0.017353   |   0.0 | 73.76
Bond    | 0.0049926  | 0.0049926  | 0.0049926  |   0.0 | 21.22
Neigh   | 0          | 0          | 0          |   0.0 |  0.00
Comm    | 0.00067338 | 0.00067338 | 0.00067338 |   0.0 |  2.86
Output  | 0          | 0          | 0          |   0.0 |  0.00
Modify  | 0          | 0          | 0          |   0.0 |  0.00
Other   |            | 0.0005061  |            |       |  2.15

Nlocal:            310 ave         310 max         310 min
Histogram: 1 0 0 0 0 0 0 0 0 0
Nghost:           1922 ave        1922 max        1922 min
Histogram: 1 0 0 0 0 0 0 0 0 0
Neighs:          16431 ave       16431 max       16431 min
Histogram: 1 0 0 0 0 0 0 0 0 0

Total # of neighbors = 16431
Ave neighs/atom = 53.003226
Ave special neighs/atom = 5.8
Neighbor list builds = 0
Dangerous builds = 0

# Obtain new stress tensor

variable tmp equal pe
variable e1 equal ${tmp}
variable e1 equal -308.52104911659
variable tmp equal press
variable p1 equal ${tmp}
variable p1 equal -488.497457133884
variable tmp equal pxx
variable pxx1 equal ${tmp}
variable pxx1 equal -1683.79835789324
variable tmp equal pyy
variable pyy1 equal ${tmp}
variable pyy1 equal 572.333445649077
variable tmp equal pzz
variable pzz1 equal ${tmp}
variable pzz1 equal -354.027459157491
variable tmp equal pxy
variable pxy1 equal ${tmp}
variable pxy1 equal 299.052354024083
variable tmp equal pxz
variable pxz1 equal ${tmp}
variable pxz1 equal 390.147842474866
variable tmp equal pyz
variable pyz1 equal ${tmp}
variable pyz1 equal -1585.34955868152

# Compute elastic constant from pressure tensor

variable C1pos equal ${d1}
variable C1pos equal 24.5414430154463
variable C2pos equal ${d2}
variable C2pos equal 13.22872136963
variable C3pos equal ${d3}
variable C3pos equal 19.0612228999023
variable C4pos equal ${d4}
variable C4pos equal -8.4114755914245
variable C5pos equal ${d5}
variable C5pos equal 3.47523760027342
variable C6pos equal ${d6}
variable C6pos equal -4.25538525044348

# Combine positive and negative

variable C1${dir} equal 0.5*(${C1neg}+${C1pos})
variable C15 equal 0.5*(${C1neg}+${C1pos})
variable C15 equal 0.5*(-25.1403780773114+${C1pos})
variable C15 equal 0.5*(-25.1403780773114+24.5414430154463)
variable C2${dir} equal 0.5*(${C2neg}+${C2pos})
variable C25 equal 0.5*(${C2neg}+${C2pos})
variable C25 equal 0.5*(-15.3971478812441+${C2pos})
variable C25 equal 0.5*(-15.3971478812441+13.22872136963)
variable C3${dir} equal 0.5*(${C3neg}+${C3pos})
variable C35 equal 0.5*(${C3neg}+${C3pos})
variable C35 equal 0.5*(-17.2108515767373+${C3pos})
variable C35 equal 0.5*(-17.2108515767373+19.0612228999023)
variable C4${dir} equal 0.5*(${C4neg}+${C4pos})
variable C45 equal 0.5*(${C4neg}+${C4pos})
variable C45 equal 0.5*(8.5189333398184+${C4pos})
variable C45 equal 0.5*(8.5189333398184+-8.4114755914245)
variable C5${dir} equal 0.5*(${C5neg}+${C5pos})
variable C55 equal 0.5*(${C5neg}+${C5pos})
variable C55 equal 0.5*(3.30521796241215+${C5pos})
variable C55 equal 0.5*(3.30521796241215+3.47523760027342)
variable C6${dir} equal 0.5*(${C6neg}+${C6pos})
variable C65 equal 0.5*(${C6neg}+${C6pos})
variable C65 equal 0.5*(3.0860346840762+${C6pos})
variable C65 equal 0.5*(3.0860346840762+-4.25538525044348)

# Delete dir to make sure it is not reused

variable dir delete

# uxy Perturbation

variable dir equal 6
include ./input/displace_333-RV-31-vasp.mod
if "${dir} == 1" then    "variable len0 equal ${lx0}"
if "${dir} == 2" then    "variable len0 equal ${ly0}"
if "${dir} == 3" then    "variable len0 equal ${lz0}"
if "${dir} == 4" then    "variable len0 equal ${lz0}"
if "${dir} == 5" then    "variable len0 equal ${lz0}"
if "${dir} == 6" then    "variable len0 equal ${ly0}"
variable len0 equal ${ly0}
variable len0 equal 13.106631915133

# Reset box and simulation parameters

clear
OMP_NUM_THREADS environment is not set. Defaulting to 1 thread.
  using 1 OpenMP thread(s) per MPI task
box tilt large

The 'box' command has been removed and will be ignored

read_restart restart_333-RV-31-vasp.equil
Reading restart file ...
  restart file = 10 Sep 2025, LAMMPS = 10 Sep 2025
  restoring atom style full from restart
  triclinic box = (-0.42552991 -0.35196396 -0.50073024) to (15.836977 12.754668 18.004169) with tilt (-7.6114743 -1.9305519 0.35776475)
WARNING: Triclinic box skew is large. LAMMPS will run inefficiently. (src/domain.cpp:221)
  1 by 1 by 1 MPI processor grid
  restoring pair style lj/cut from restart
  restoring bond style harmonic from restart
  restoring angle style hybrid from restart
  restoring dihedral style harmonic from restart
  310 atoms
  315 bonds
  584 angles
  669 dihedrals
Finding 1-2 1-3 1-4 neighbors ...
  special bond factors lj:    0        0        1       
  special bond factors coul:  0        0        1       
     4 = max # of 1-2 neighbors
    10 = max # of 1-3 neighbors
    14 = max # of special neighbors
  special bonds CPU = 0.000 seconds
  read_restart CPU = 0.001 seconds
include ./input/angles_333-RV-31-vasp.mod
angle_style hybrid fourier cosine/periodic
angle_coeff 1 fourier 58.020602        0.343737        0.374972        0.281246
angle_coeff 2 fourier 83.380072        0.343737        0.374972        0.281246
angle_coeff 3 fourier 157.882480        0.343737        0.374972        0.281246
angle_coeff 4 fourier 221.735285        0.343737        0.374972        0.281246
angle_coeff 5 fourier 32.417871        0.343737        0.374972        0.281246
angle_coeff 6 fourier 114.246973        0.343737        0.374972        0.281246
angle_coeff 7 fourier 90.420412        0.343737        0.374972        0.281246
angle_coeff 8 fourier 75.498766        0.343737        0.374972        0.281246
angle_coeff 9 cosine/periodic 88.853997              -1               3

# Negative deformation

variable delta equal -${up}*${len0}
variable delta equal -0.02*${len0}
variable delta equal -0.02*13.106631915133
variable deltaxy equal -${up}*xy
variable deltaxy equal -0.02*xy
variable deltaxz equal -${up}*xz
variable deltaxz equal -0.02*xz
variable deltayz equal -${up}*yz
variable deltayz equal -0.02*yz
if "${dir} == 1" then    "change_box all x delta 0 ${delta} xy delta ${deltaxy} xz delta ${deltaxz} remap units box"
if "${dir} == 2" then    "change_box all y delta 0 ${delta} yz delta ${deltayz} remap units box"
if "${dir} == 3" then    "change_box all z delta 0 ${delta} remap units box"
if "${dir} == 4" then    "change_box all yz delta ${delta} remap units box"
if "${dir} == 5" then    "change_box all xz delta ${delta} remap units box"
if "${dir} == 6" then    "change_box all xy delta ${delta} remap units box"
change_box all xy delta ${delta} remap units box
change_box all xy delta -0.26213263830266 remap units box
Changing box ...
WARNING: Triclinic box skew is large. LAMMPS will run inefficiently. (src/domain.cpp:221)
  triclinic box = (-0.42552991 -0.35196396 -0.50073024) to (15.836977 12.754668 18.004169) with tilt (-7.8736069 -1.9305519 0.35776475)

# Relax atoms positions

minimize ${etol} ${ftol} ${maxiter} ${maxeval}
minimize 0 ${ftol} ${maxiter} ${maxeval}
minimize 0 1e-10 ${maxiter} ${maxeval}
minimize 0 1e-10 100000 ${maxeval}
minimize 0 1e-10 100000 100000
Generated 28 of 28 mixed pair_coeff terms from arithmetic mixing rule
Neighbor list info ...
  update: every = 1 steps, delay = 0 steps, check = yes
  max neighbors/atom: 2000, page size: 100000
  master list distance cutoff = 7
  ghost atom cutoff = 7
  binsize = 3.5, bins = 8 4 6
  1 neighbor lists, perpetual/occasional/extra = 1 0 0
  (1) pair lj/cut, perpetual
      attributes: half, newton on
      pair build: half/bin/newton/tri
      stencil: half/bin/3d/tri
      bin: standard
WARNING: Inconsistent image flags
For more information see https://docs.lammps.org/err0027 (src/domain.cpp:1052)
Per MPI rank memory allocation (min/avg/max) = 19.47 | 19.47 | 19.47 Mbytes
   Step          Temp          E_pair         E_mol          TotEng         Press     
    250277   300.36833     -379.45458      169.01175      66.217518      3086.2999    
    250318   300.36833     -396.70258      89.442824     -30.59941      -810.74928    
Loop time of 0.0238337 on 1 procs for 41 steps with 310 atoms

100.0% CPU use with 1 MPI tasks x 1 OpenMP threads

Minimization stats:
  Stopping criterion = linesearch alpha is zero
  Energy initial, next-to-last, final = 
     -210.442832258767  -307.259760036882  -307.259760036882
  Force two-norm initial, final = 158.07595 18.888962
  Force max component initial, final = 20.422116 3.6164669
  Final line search alpha, max atom move = 3.0542611e-11 1.1045634e-10
  Iterations, force evaluations = 41 137

MPI task timing breakdown:
Section |  min time  |  avg time  |  max time  |%varavg| %total
---------------------------------------------------------------
Pair    | 0.017565   | 0.017565   | 0.017565   |   0.0 | 73.70
Bond    | 0.0050472  | 0.0050472  | 0.0050472  |   0.0 | 21.18
Neigh   | 0          | 0          | 0          |   0.0 |  0.00
Comm    | 0.00068183 | 0.00068183 | 0.00068183 |   0.0 |  2.86
Output  | 0          | 0          | 0          |   0.0 |  0.00
Modify  | 0          | 0          | 0          |   0.0 |  0.00
Other   |            | 0.0005395  |            |       |  2.26

Nlocal:            310 ave         310 max         310 min
Histogram: 1 0 0 0 0 0 0 0 0 0
Nghost:           1934 ave        1934 max        1934 min
Histogram: 1 0 0 0 0 0 0 0 0 0
Neighs:          16453 ave       16453 max       16453 min
Histogram: 1 0 0 0 0 0 0 0 0 0

Total # of neighbors = 16453
Ave neighs/atom = 53.074194
Ave special neighs/atom = 5.8
Neighbor list builds = 0
Dangerous builds = 0

# Obtain new stress tensor

variable tmp equal pxx
variable pxx1 equal ${tmp}
variable pxx1 equal -2108.89802836022
variable tmp equal pyy
variable pyy1 equal ${tmp}
variable pyy1 equal 240.035570143246
variable tmp equal pzz
variable pzz1 equal ${tmp}
variable pzz1 equal -563.385389161543
variable tmp equal pxy
variable pxy1 equal ${tmp}
variable pxy1 equal 1124.28281391754
variable tmp equal pxz
variable pxz1 equal ${tmp}
variable pxz1 equal 1128.54818595401
variable tmp equal pyz
variable pyz1 equal ${tmp}
variable pyz1 equal -1293.1454469619

# Compute elastic constant from pressure tensor

variable C1neg equal ${d1}
variable C1neg equal -26.6669413677812
variable C2neg equal ${d2}
variable C2neg equal -14.8902107471591
variable C3neg equal ${d3}
variable C3neg equal -20.1080125499226
variable C4neg equal ${d4}
variable C4neg equal 9.8724961500226
variable C5neg equal ${d5}
variable C5neg equal 0.2167641171223
variable C6neg equal ${d6}
variable C6neg equal 8.38153754991077

# Reset box and simulation parameters

clear
OMP_NUM_THREADS environment is not set. Defaulting to 1 thread.
  using 1 OpenMP thread(s) per MPI task
box tilt large

The 'box' command has been removed and will be ignored

read_restart restart_333-RV-31-vasp.equil
Reading restart file ...
  restart file = 10 Sep 2025, LAMMPS = 10 Sep 2025
  restoring atom style full from restart
  triclinic box = (-0.42552991 -0.35196396 -0.50073024) to (15.836977 12.754668 18.004169) with tilt (-7.6114743 -1.9305519 0.35776475)
WARNING: Triclinic box skew is large. LAMMPS will run inefficiently. (src/domain.cpp:221)
  1 by 1 by 1 MPI processor grid
  restoring pair style lj/cut from restart
  restoring bond style harmonic from restart
  restoring angle style hybrid from restart
  restoring dihedral style harmonic from restart
  310 atoms
  315 bonds
  584 angles
  669 dihedrals
Finding 1-2 1-3 1-4 neighbors ...
  special bond factors lj:    0        0        1       
  special bond factors coul:  0        0        1       
     4 = max # of 1-2 neighbors
    10 = max # of 1-3 neighbors
    14 = max # of special neighbors
  special bonds CPU = 0.000 seconds
  read_restart CPU = 0.001 seconds
include ./input/angles_333-RV-31-vasp.mod
angle_style hybrid fourier cosine/periodic
angle_coeff 1 fourier 58.020602        0.343737        0.374972        0.281246
angle_coeff 2 fourier 83.380072        0.343737        0.374972        0.281246
angle_coeff 3 fourier 157.882480        0.343737        0.374972        0.281246
angle_coeff 4 fourier 221.735285        0.343737        0.374972        0.281246
angle_coeff 5 fourier 32.417871        0.343737        0.374972        0.281246
angle_coeff 6 fourier 114.246973        0.343737        0.374972        0.281246
angle_coeff 7 fourier 90.420412        0.343737        0.374972        0.281246
angle_coeff 8 fourier 75.498766        0.343737        0.374972        0.281246
angle_coeff 9 cosine/periodic 88.853997              -1               3

# Positive deformation

variable delta equal ${up}*${len0}
variable delta equal 0.02*${len0}
variable delta equal 0.02*13.106631915133
variable deltaxy equal ${up}*xy
variable deltaxy equal 0.02*xy
variable deltaxz equal ${up}*xz
variable deltaxz equal 0.02*xz
variable deltayz equal ${up}*yz
variable deltayz equal 0.02*yz
if "${dir} == 1" then    "change_box all x delta 0 ${delta} xy delta ${deltaxy} xz delta ${deltaxz} remap units box"
if "${dir} == 2" then    "change_box all y delta 0 ${delta} yz delta ${deltayz} remap units box"
if "${dir} == 3" then    "change_box all z delta 0 ${delta} remap units box"
if "${dir} == 4" then    "change_box all yz delta ${delta} remap units box"
if "${dir} == 5" then    "change_box all xz delta ${delta} remap units box"
if "${dir} == 6" then    "change_box all xy delta ${delta} remap units box"
change_box all xy delta ${delta} remap units box
change_box all xy delta 0.26213263830266 remap units box
Changing box ...
WARNING: Triclinic box skew is large. LAMMPS will run inefficiently. (src/domain.cpp:221)
  triclinic box = (-0.42552991 -0.35196396 -0.50073024) to (15.836977 12.754668 18.004169) with tilt (-7.3493416 -1.9305519 0.35776475)

# Relax atoms positions

minimize ${etol} ${ftol} ${maxiter} ${maxeval}
minimize 0 ${ftol} ${maxiter} ${maxeval}
minimize 0 1e-10 ${maxiter} ${maxeval}
minimize 0 1e-10 100000 ${maxeval}
minimize 0 1e-10 100000 100000
Generated 28 of 28 mixed pair_coeff terms from arithmetic mixing rule
Neighbor list info ...
  update: every = 1 steps, delay = 0 steps, check = yes
  max neighbors/atom: 2000, page size: 100000
  master list distance cutoff = 7
  ghost atom cutoff = 7
  binsize = 3.5, bins = 8 4 6
  1 neighbor lists, perpetual/occasional/extra = 1 0 0
  (1) pair lj/cut, perpetual
      attributes: half, newton on
      pair build: half/bin/newton/tri
      stencil: half/bin/3d/tri
      bin: standard
WARNING: Inconsistent image flags
For more information see https://docs.lammps.org/err0027 (src/domain.cpp:1052)
Per MPI rank memory allocation (min/avg/max) = 19.47 | 19.47 | 19.47 Mbytes
   Step          Temp          E_pair         E_mol          TotEng         Press     
    250277   300.36833     -377.63037      169.06093      68.090903      3187.5629    
    250313   300.36833     -396.45415      89.711896     -30.081904     -202.77325    
Loop time of 0.0222929 on 1 procs for 36 steps with 310 atoms

100.0% CPU use with 1 MPI tasks x 1 OpenMP threads

Minimization stats:
  Stopping criterion = linesearch alpha is zero
  Energy initial, next-to-last, final = 
     -208.569446706148  -306.742253646682  -306.742253646682
  Force two-norm initial, final = 160.66573 19.27018
  Force max component initial, final = 22.331692 3.0529498
  Final line search alpha, max atom move = 1.7822726e-11 5.4411888e-11
  Iterations, force evaluations = 36 129

MPI task timing breakdown:
Section |  min time  |  avg time  |  max time  |%varavg| %total
---------------------------------------------------------------
Pair    | 0.016372   | 0.016372   | 0.016372   |   0.0 | 73.44
Bond    | 0.0047718  | 0.0047718  | 0.0047718  |   0.0 | 21.41
Neigh   | 0          | 0          | 0          |   0.0 |  0.00
Comm    | 0.00067473 | 0.00067473 | 0.00067473 |   0.0 |  3.03
Output  | 0          | 0          | 0          |   0.0 |  0.00
Modify  | 0          | 0          | 0          |   0.0 |  0.00
Other   |            | 0.0004743  |            |       |  2.13

Nlocal:            310 ave         310 max         310 min
Histogram: 1 0 0 0 0 0 0 0 0 0
Nghost:           1908 ave        1908 max        1908 min
Histogram: 1 0 0 0 0 0 0 0 0 0
Neighs:          16433 ave       16433 max       16433 min
Histogram: 1 0 0 0 0 0 0 0 0 0

Total # of neighbors = 16433
Ave neighs/atom = 53.009677
Ave special neighs/atom = 5.8
Neighbor list builds = 0
Dangerous builds = 0

# Obtain new stress tensor

variable tmp equal pe
variable e1 equal ${tmp}
variable e1 equal -306.742253646682
variable tmp equal press
variable p1 equal ${tmp}
variable p1 equal -202.773247128274
variable tmp equal pxx
variable pxx1 equal ${tmp}
variable pxx1 equal -1153.3766402791
variable tmp equal pyy
variable pyy1 equal ${tmp}
variable pyy1 equal 573.325554908191
variable tmp equal pzz
variable pzz1 equal ${tmp}
variable pzz1 equal -28.2686560139136
variable tmp equal pxy
variable pxy1 equal ${tmp}
variable pxy1 equal -550.202358453408
variable tmp equal pxz
variable pxz1 equal ${tmp}
variable pxz1 equal 1179.54563203872
variable tmp equal pyz
variable pyz1 equal ${tmp}
variable pyz1 equal -1185.87078486416

# Compute elastic constant from pressure tensor

variable C1pos equal ${d1}
variable C1pos equal 21.8893344273756
variable C2pos equal ${d2}
variable C2pos equal 13.2237608233344
variable C3pos equal ${d3}
variable C3pos equal 17.4324288841844
variable C4pos equal ${d4}
variable C4pos equal -10.4088694605113
variable C5pos equal ${d5}
variable C5pos equal -0.47175134754585
variable C6pos equal ${d6}
variable C6pos equal -0.00911168805602472

# Combine positive and negative

variable C1${dir} equal 0.5*(${C1neg}+${C1pos})
variable C16 equal 0.5*(${C1neg}+${C1pos})
variable C16 equal 0.5*(-26.6669413677812+${C1pos})
variable C16 equal 0.5*(-26.6669413677812+21.8893344273756)
variable C2${dir} equal 0.5*(${C2neg}+${C2pos})
variable C26 equal 0.5*(${C2neg}+${C2pos})
variable C26 equal 0.5*(-14.8902107471591+${C2pos})
variable C26 equal 0.5*(-14.8902107471591+13.2237608233344)
variable C3${dir} equal 0.5*(${C3neg}+${C3pos})
variable C36 equal 0.5*(${C3neg}+${C3pos})
variable C36 equal 0.5*(-20.1080125499226+${C3pos})
variable C36 equal 0.5*(-20.1080125499226+17.4324288841844)
variable C4${dir} equal 0.5*(${C4neg}+${C4pos})
variable C46 equal 0.5*(${C4neg}+${C4pos})
variable C46 equal 0.5*(9.8724961500226+${C4pos})
variable C46 equal 0.5*(9.8724961500226+-10.4088694605113)
variable C5${dir} equal 0.5*(${C5neg}+${C5pos})
variable C56 equal 0.5*(${C5neg}+${C5pos})
variable C56 equal 0.5*(0.2167641171223+${C5pos})
variable C56 equal 0.5*(0.2167641171223+-0.47175134754585)
variable C6${dir} equal 0.5*(${C6neg}+${C6pos})
variable C66 equal 0.5*(${C6neg}+${C6pos})
variable C66 equal 0.5*(8.38153754991077+${C6pos})
variable C66 equal 0.5*(8.38153754991077+-0.00911168805602472)

# Delete dir to make sure it is not reused

variable dir delete

# Output final values

variable C11all equal ${C11}
variable C11all equal 6.03485075639445
variable C22all equal ${C22}
variable C22all equal 20.6179059359942
variable C33all equal ${C33}
variable C33all equal 12.1627185574962

variable C12all equal 0.5*(${C12}+${C21})
variable C12all equal 0.5*(6.5629011097094+${C21})
variable C12all equal 0.5*(6.5629011097094+4.25829878549817)
variable C13all equal 0.5*(${C13}+${C31})
variable C13all equal 0.5*(5.52969867312815+${C31})
variable C13all equal 0.5*(5.52969867312815+5.7469510699551)
variable C23all equal 0.5*(${C23}+${C32})
variable C23all equal 0.5*(6.07287149889055+${C32})
variable C23all equal 0.5*(6.07287149889055+5.2792314407159)

variable C44all equal ${C44}
variable C44all equal 2.92588846692162
variable C55all equal ${C55}
variable C55all equal 3.39022778134279
variable C66all equal ${C66}
variable C66all equal 4.18621293092737

variable C14all equal 0.5*(${C14}+${C41})
variable C14all equal 0.5*(-0.954490280956451+${C41})
variable C14all equal 0.5*(-0.954490280956451+1.18912173632622)
variable C15all equal 0.5*(${C15}+${C51})
variable C15all equal 0.5*(-0.299467530932549+${C51})
variable C15all equal 0.5*(-0.299467530932549+0.14093222424665)
variable C16all equal 0.5*(${C16}+${C61})
variable C16all equal 0.5*(-2.3888034702028+${C61})
variable C16all equal 0.5*(-2.3888034702028+-2.04382491913796)

variable C24all equal 0.5*(${C24}+${C42})
variable C24all equal 0.5*(-0.23891654886955+${C42})
variable C24all equal 0.5*(-0.23891654886955+-0.26487715832835)
variable C25all equal 0.5*(${C25}+${C52})
variable C25all equal 0.5*(-1.08421325580705+${C52})
variable C25all equal 0.5*(-1.08421325580705+-1.54207325536188)
variable C26all equal 0.5*(${C26}+${C62})
variable C26all equal 0.5*(-0.83322496191235+${C62})
variable C26all equal 0.5*(-0.83322496191235+-2.34032001062268)

variable C34all equal 0.5*(${C34}+${C43})
variable C34all equal 0.5*(-0.7113532088764+${C43})
variable C34all equal 0.5*(-0.7113532088764+0.594383897995625)
variable C35all equal 0.5*(${C35}+${C53})
variable C35all equal 0.5*(0.9251856615825+${C53})
variable C35all equal 0.5*(0.9251856615825+0.583333682172775)
variable C36all equal 0.5*(${C36}+${C63})
variable C36all equal 0.5*(-1.3377918328691+${C63})
variable C36all equal 0.5*(-1.3377918328691+0.651227345725265)

variable C45all equal 0.5*(${C45}+${C54})
variable C45all equal 0.5*(0.0537288741969499+${C54})
variable C45all equal 0.5*(0.0537288741969499+0.882967002014125)
variable C46all equal 0.5*(${C46}+${C64})
variable C46all equal 0.5*(-0.268186655244349+${C64})
variable C46all equal 0.5*(-0.268186655244349+0.538843109502265)
variable C56all equal 0.5*(${C56}+${C65})
variable C56all equal 0.5*(-0.127493615211775+${C65})
variable C56all equal 0.5*(-0.127493615211775+-0.58467528318364)

# Average moduli for cubic crystals

variable C11cubic equal (${C11all}+${C22all}+${C33all})/3.0
variable C11cubic equal (6.03485075639445+${C22all}+${C33all})/3.0
variable C11cubic equal (6.03485075639445+20.6179059359942+${C33all})/3.0
variable C11cubic equal (6.03485075639445+20.6179059359942+12.1627185574962)/3.0
variable C12cubic equal (${C12all}+${C13all}+${C23all})/3.0
variable C12cubic equal (5.41059994760379+${C13all}+${C23all})/3.0
variable C12cubic equal (5.41059994760379+5.63832487154163+${C23all})/3.0
variable C12cubic equal (5.41059994760379+5.63832487154163+5.67605146980322)/3.0
variable C44cubic equal (${C44all}+${C55all}+${C66all})/3.0
variable C44cubic equal (2.92588846692162+${C55all}+${C66all})/3.0
variable C44cubic equal (2.92588846692162+3.39022778134279+${C66all})/3.0
variable C44cubic equal (2.92588846692162+3.39022778134279+4.18621293092737)/3.0

variable bulkmodulus equal (${C11cubic}+2*${C12cubic})/3.0
variable bulkmodulus equal (12.9384917499616+2*${C12cubic})/3.0
variable bulkmodulus equal (12.9384917499616+2*5.57499209631621)/3.0
variable shearmodulus1 equal ${C44cubic}
variable shearmodulus1 equal 3.50077639306393
variable shearmodulus2 equal (${C11cubic}-${C12cubic})/2.0
variable shearmodulus2 equal (12.9384917499616-${C12cubic})/2.0
variable shearmodulus2 equal (12.9384917499616-5.57499209631621)/2.0
variable poissonratio equal 1.0/(1.0+${C11cubic}/${C12cubic})
variable poissonratio equal 1.0/(1.0+12.9384917499616/${C12cubic})
variable poissonratio equal 1.0/(1.0+12.9384917499616/5.57499209631621)

print "Elastic Constant 1 1 = ${C11all}"
Elastic Constant 1 1 = 6.03485075639445
print "Elastic Constant 2 2 = ${C22all}"
Elastic Constant 2 2 = 20.6179059359942
print "Elastic Constant 3 3 = ${C33all}"
Elastic Constant 3 3 = 12.1627185574962

print "Elastic Constant 1 2 = ${C12all}"
Elastic Constant 1 2 = 5.41059994760379
print "Elastic Constant 1 3 = ${C13all}"
Elastic Constant 1 3 = 5.63832487154163
print "Elastic Constant 2 3 = ${C23all}"
Elastic Constant 2 3 = 5.67605146980322

print "Elastic Constant 4 4 = ${C44all}"
Elastic Constant 4 4 = 2.92588846692162
print "Elastic Constant 5 5 = ${C55all}"
Elastic Constant 5 5 = 3.39022778134279
print "Elastic Constant 6 6 = ${C66all}"
Elastic Constant 6 6 = 4.18621293092737

print "Elastic Constant 1 4 = ${C14all}"
Elastic Constant 1 4 = 0.117315727684885
print "Elastic Constant 1 5 = ${C15all}"
Elastic Constant 1 5 = -0.0792676533429495
print "Elastic Constant 1 6 = ${C16all}"
Elastic Constant 1 6 = -2.21631419467038

print "Elastic Constant 2 4 = ${C24all}"
Elastic Constant 2 4 = -0.25189685359895
print "Elastic Constant 2 5 = ${C25all}"
Elastic Constant 2 5 = -1.31314325558446
print "Elastic Constant 2 6 = ${C26all}"
Elastic Constant 2 6 = -1.58677248626751

print "Elastic Constant 3 4 = ${C34all}"
Elastic Constant 3 4 = -0.0584846554403875
print "Elastic Constant 3 5 = ${C35all}"
Elastic Constant 3 5 = 0.754259671877638
print "Elastic Constant 3 6 = ${C36all}"
Elastic Constant 3 6 = -0.343282243571918

print "Elastic Constant 4 5 = ${C45all}"
Elastic Constant 4 5 = 0.468347938105537
print "Elastic Constant 4 6 = ${C46all}"
Elastic Constant 4 6 = 0.135328227128958
print "Elastic Constant 5 6 = ${C56all}"
Elastic Constant 5 6 = -0.356084449197708

print "Bulk Modulus = ${bulkmodulus} ${cunits}"
Bulk Modulus = 8.02949198086467 GPa
print "Shear Modulus 1 = ${shearmodulus1} ${cunits}"
Shear Modulus 1 = 3.50077639306393 GPa
print "Shear Modulus 2 = ${shearmodulus2} ${cunits}"
Shear Modulus 2 = 3.68174982682269 GPa
print "Poisson Ratio = ${poissonratio}"
Poisson Ratio = 0.301131442499251

variable rho equal density
print "density (g/cm^3) = ${rho}"
density (g/cm^3) = 1.2377618643455
Total wall time: 0:00:52
